 vasp.6.3.0 20Jan22 (build Jan 26 2022 20:51:09) complex

 executed on             LinuxIFC date 2023.07.15  20:49:21

 INCAR:
   ISTART = 0            (Read existing wavefunction
   ISPIN = 1            (Non-Spin polarised DFT)
   LREAL = .FALSE.       (Projection operators: automatic)
   ENCUT = 520        (Cut-off energy for plane wave basis set, in eV)
   PREC = A       (Precision level)
   LWAVE = .TRUE.        (Write WAVECAR or not)
   LCHARG = .TRUE.        (Write CHGCAR or not)
   ADDGRID = F        (Increase grid
   ISMEAR = 0            (Gaussian smearing
   SIGMA = 0.05         (Smearing value in eV
   NELM = 200
   EDIFF = 1E-6        (SCF energy convergence
   NSW = 0          (Max ionic steps)
   IBRION = -1            (Algorithm: 0-MD
   ISIF = 3           (Stress/relaxation: 2-Ions, 3-Shape/Ions/V, 4-Shape/Ions)
   EDIFFG = -1E-05        (Ionic convergence
   NPAR = 4

 POTCAR:    PAW_PBE C 08Apr2002
|           W    W    AA    RRRRR   N    N  II  N    N   GGGG   !!!           |
|           W    W   A  A   R    R  NN   N  II  NN   N  G    G  !!!           |
|           W    W  A    A  R    R  N N  N  II  N N  N  G       !!!           |
|           W WW W  AAAAAA  RRRRR   N  N N  II  N  N N  G  GGG   !            |
|           WW  WW  A    A  R   R   N   NN  II  N   NN  G    G                |
|           W    W  A    A  R    R  N    N  II  N    N   GGGG   !!!           |
|     The value NPAR = 4 specified in the INCAR file was overwritten,         |
|     because it was not compatible with the 30 processes available:          |
|     NPAR = 30                                                               |
|     was used instead, please check that this makes sense for your           |
|     machine.                                                                |

 POTCAR:    PAW_PBE C 08Apr2002
   VRHFIN =C: s2p2

   TITEL  = PAW_PBE C 08Apr2002
   POMASS =   12.011; ZVAL   =    4.000    mass and valenz
   ENMAX  =  400.000; ENMIN  =  300.000 eV

  PAW_PBE C 08Apr2002                   :

 POSCAR: C4
  positions in direct lattice
  velocities in cartesian coordinates
 exchange correlation table for  LEXCH =        8
   RHO(1)=    0.500       N(1)  =     2000
   RHO(2)=  100.500       N(2)  =     4000

 ion  position               nearest neighbor table
   1  0.000  0.000  0.500-   2 1.42   2 1.42   2 1.42
   2  0.333  0.333  0.500-   1 1.42   1 1.42   1 1.42

  LATTYP: Found a hexagonal cell.
 ALAT       =     2.4681332416
 C/A-ratio  =     4.8619741422

  Lattice vectors:

 A1 = (  -1.2340666208,  -2.1374660871,   0.0000000000)
 A2 = (   2.4681332416,   0.0000000000,   0.0000000000)
 A3 = (   0.0000000000,   0.0000000000,  12.0000000000)

Analysis of symmetry for initial positions (statically):
 Subroutine PRICEL returns:
 Original cell was already a primitive cell.

 Routine SETGRP: Setting up the symmetry group for a
 hexagonal supercell.

 Subroutine GETGRP returns: Found 24 space group operations
 (whereof 12 operations were pure point group operations)
 out of a pool of 24 trial point group operations.

The static configuration has the point symmetry D_3h.
 The point group associated with its full space group is D_6h.

Analysis of symmetry for dynamics (positions and initial velocities):
 Subroutine PRICEL returns:
 Original cell was already a primitive cell.

 Routine SETGRP: Setting up the symmetry group for a
 hexagonal supercell.

 Subroutine GETGRP returns: Found 24 space group operations
 (whereof 12 operations were pure point group operations)
 out of a pool of 24 trial point group operations.

The dynamic configuration has the point symmetry D_3h.
 The point group associated with its full space group is D_6h.

 Subroutine INISYM returns: Found 24 space group operations
 (whereof 12 operations are pure point group operations),
 and found     1 'primitive' translations

                                     Primitive cell

  volume of cell :      63.3066

  direct lattice vectors                    reciprocal lattice vectors
     2.468133242  0.000000000  0.000000000     0.405164512 -0.233921840  0.000000000
     1.234066621  2.137466087  0.000000000     0.000000000  0.467843680  0.000000000
     0.000000000  0.000000000 12.000000000     0.000000000  0.000000000  0.083333333

  length of vectors
     2.468133242  2.468133242 12.000000000     0.467843680  0.467843680  0.083333333

  position of ions in fractional coordinates (direct lattice)
     0.000000000  0.000000000  0.500000000
     0.333333343  0.333333343  0.500000000

  ion indices of the primitive-cell ions
   primitive index   ion index
                 1           1
                 2           2

 KPOINTS: 0.030  18  18   1   37  0.030  132    3

Read explicit list of k-points.

 Found    169 k-points:

 Following reciprocal coordinates:
            Coordinates               Weight
  0.000000  0.000000  0.000000      0.003086
  0.055556  0.000000  0.000000      0.018519
  0.111111  0.000000  0.000000      0.018519
  0.166667  0.000000  0.000000      0.018519
  0.222222  0.000000  0.000000      0.018519
  0.277778  0.000000  0.000000      0.018519
  0.333333  0.000000  0.000000      0.018519
  0.388889  0.000000  0.000000      0.018519
  0.444444  0.000000  0.000000      0.018519
  0.500000  0.000000  0.000000      0.009259
  0.111111  0.055556  0.000000      0.018519
  0.166667  0.055556  0.000000      0.037037
  0.222222  0.055556  0.000000      0.037037
  0.277778  0.055556  0.000000      0.037037
  0.333333  0.055556  0.000000      0.037037
  0.388889  0.055556  0.000000      0.037037
  0.444444  0.055556  0.000000      0.037037
  0.500000  0.055556  0.000000      0.037037
  0.222222  0.111111  0.000000      0.018519
  0.277778  0.111111  0.000000      0.037037
  0.333333  0.111111  0.000000      0.037037
  0.388889  0.111111  0.000000      0.037037
  0.444444  0.111111  0.000000      0.037037
  0.500000  0.111111  0.000000      0.037037
 -0.444444  0.111111  0.000000      0.018519
  0.333333  0.166667  0.000000      0.018519
  0.388889  0.166667  0.000000      0.037037
  0.444444  0.166667  0.000000      0.037037
  0.500000  0.166667  0.000000      0.037037
 -0.444444  0.166667  0.000000      0.037037
  0.444444  0.222222  0.000000      0.018519
  0.500000  0.222222  0.000000      0.037037
 -0.444444  0.222222  0.000000      0.037037
 -0.388889  0.222222  0.000000      0.018519
 -0.444444  0.277778  0.000000      0.018519
 -0.388889  0.277778  0.000000      0.037037
 -0.333333  0.333333  0.000000      0.006173
  0.000000  0.000000  0.000000      0.000000
  0.010638  0.010638  0.000000      0.000000
  0.021277  0.021277  0.000000      0.000000
  0.031915  0.031915  0.000000      0.000000
  0.042553  0.042553  0.000000      0.000000
  0.053191  0.053191  0.000000      0.000000
  0.063830  0.063830  0.000000      0.000000
  0.074468  0.074468  0.000000      0.000000
  0.085106  0.085106  0.000000      0.000000
  0.095745  0.095745  0.000000      0.000000
  0.106383  0.106383  0.000000      0.000000
  0.117021  0.117021  0.000000      0.000000
  0.127660  0.127660  0.000000      0.000000
  0.138298  0.138298  0.000000      0.000000
  0.148936  0.148936  0.000000      0.000000
  0.159574  0.159574  0.000000      0.000000
  0.170213  0.170213  0.000000      0.000000
  0.180851  0.180851  0.000000      0.000000
  0.191489  0.191489  0.000000      0.000000
  0.202128  0.202128  0.000000      0.000000
  0.212766  0.212766  0.000000      0.000000
  0.223404  0.223404  0.000000      0.000000
  0.234043  0.234043  0.000000      0.000000
[...]
  0.084848  0.169697  0.000000      0.000000
  0.078788  0.157576  0.000000      0.000000
  0.072727  0.145455  0.000000      0.000000
  0.066667  0.133333  0.000000      0.000000
  0.060606  0.121212  0.000000      0.000000
  0.054545  0.109091  0.000000      0.000000
  0.048485  0.096970  0.000000      0.000000
  0.042424  0.084848  0.000000      0.000000
  0.036364  0.072727  0.000000      0.000000
  0.030303  0.060606  0.000000      0.000000
  0.024242  0.048485  0.000000      0.000000
  0.018182  0.036364  0.000000      0.000000
  0.012121  0.024242  0.000000      0.000000
  0.006061  0.012121  0.000000      0.000000
  0.000000  0.000000  0.000000      0.000000

 Following cartesian coordinates:
            Coordinates               Weight
  0.000000  0.000000  0.000000      0.003086
  0.022509 -0.012996  0.000000      0.018519
  0.045018 -0.025991  0.000000      0.018519
  0.067527 -0.038987  0.000000      0.018519
  0.090037 -0.051983  0.000000      0.018519
  0.112546 -0.064978  0.000000      0.018519
  0.135055 -0.077974  0.000000      0.018519
  0.157564 -0.090970  0.000000      0.018519
  0.180073 -0.103965  0.000000      0.018519
  0.202582 -0.116961  0.000000      0.009259
  0.045018  0.000000  0.000000      0.018519
  0.067527 -0.012996  0.000000      0.037037
  0.090037 -0.025991  0.000000      0.037037
  0.112546 -0.038987  0.000000      0.037037
  0.135055 -0.051983  0.000000      0.037037
  0.157564 -0.064978  0.000000      0.037037
  0.180073 -0.077974  0.000000      0.037037
  0.202582 -0.090970  0.000000      0.037037
  0.090037  0.000000  0.000000      0.018519
  0.112546 -0.012996  0.000000      0.037037
  0.135055 -0.025991  0.000000      0.037037
  0.157564 -0.038987  0.000000      0.037037
  0.180073 -0.051983  0.000000      0.037037
  0.202582 -0.064978  0.000000      0.037037
 -0.180073  0.155948  0.000000      0.018519
  0.135055  0.000000  0.000000      0.018519
  0.157564 -0.012996  0.000000      0.037037
  0.180073 -0.025991  0.000000      0.037037
  0.202582 -0.038987  0.000000      0.037037
 -0.180073  0.181939  0.000000      0.037037
  0.180073  0.000000  0.000000      0.018519
  0.202582 -0.012996  0.000000      0.037037
 -0.180073  0.207931  0.000000      0.037037
 -0.157564  0.194935  0.000000      0.018519
 -0.180073  0.233922  0.000000      0.018519
 -0.157564  0.220926  0.000000      0.037037
 -0.135055  0.233922  0.000000      0.006173
  0.000000  0.000000  0.000000      0.000000
  0.004310  0.002489  0.000000      0.000000
  0.008621  0.004977  0.000000      0.000000
  0.012931  0.007466  0.000000      0.000000
  0.017241  0.009954  0.000000      0.000000
  0.021551  0.012443  0.000000      0.000000
  0.025862  0.014931  0.000000      0.000000
  0.030172  0.017420  0.000000      0.000000
  0.034482  0.019908  0.000000      0.000000
  0.038792  0.022397  0.000000      0.000000
  0.043103  0.024885  0.000000      0.000000
  0.047413  0.027374  0.000000      0.000000
  0.051723  0.029862  0.000000      0.000000
  0.056033  0.032351  0.000000      0.000000
  0.060344  0.034839  0.000000      0.000000
  0.064654  0.037328  0.000000      0.000000
  0.068964  0.039816  0.000000      0.000000
  0.073274  0.042305  0.000000      0.000000
  0.077585  0.044794  0.000000      0.000000
  0.081895  0.047282  0.000000      0.000000
  0.086205  0.049771  0.000000      0.000000
  0.090515  0.052259  0.000000      0.000000
  0.094826  0.054748  0.000000      0.000000
[...]
  0.034378  0.059544  0.000000      0.000000
  0.031922  0.055291  0.000000      0.000000
  0.029467  0.051037  0.000000      0.000000
[...]
   0.33333333  0.11111111  0.00000000       0.037
   0.38888889  0.11111111  0.00000000       0.037
   0.44444444  0.11111111  0.00000000       0.037
   0.50000000  0.11111111  0.00000000       0.037
  -0.44444444  0.11111111  0.00000000       0.019
   0.33333333  0.16666667  0.00000000       0.019
   0.38888889  0.16666667  0.00000000       0.037
   0.44444444  0.16666667  0.00000000       0.037
   0.50000000  0.16666667  0.00000000       0.037
  -0.44444444  0.16666667  0.00000000       0.037
   0.44444444  0.22222222  0.00000000       0.019
   0.50000000  0.22222222  0.00000000       0.037
  -0.44444444  0.22222222  0.00000000       0.037
  -0.38888889  0.22222222  0.00000000       0.019
  -0.44444444  0.27777778  0.00000000       0.019
  -0.38888889  0.27777778  0.00000000       0.037
  -0.33333333  0.33333333  0.00000000       0.006
   0.00000000  0.00000000  0.00000000       0.000
   0.01063830  0.01063830  0.00000000       0.000
   0.02127660  0.02127660  0.00000000       0.000
   0.03191489  0.03191489  0.00000000       0.000
   0.04255319  0.04255319  0.00000000       0.000
   0.05319149  0.05319149  0.00000000       0.000
   0.06382979  0.06382979  0.00000000       0.000
   0.07446809  0.07446809  0.00000000       0.000
   0.08510638  0.08510638  0.00000000       0.000
   0.09574468  0.09574468  0.00000000       0.000
   0.10638298  0.10638298  0.00000000       0.000
   0.11702128  0.11702128  0.00000000       0.000
   0.12765957  0.12765957  0.00000000       0.000
   0.13829787  0.13829787  0.00000000       0.000
   0.14893617  0.14893617  0.00000000       0.000
   0.15957447  0.15957447  0.00000000       0.000
   0.17021277  0.17021277  0.00000000       0.000
   0.18085106  0.18085106  0.00000000       0.000
   0.19148936  0.19148936  0.00000000       0.000
   0.20212766  0.20212766  0.00000000       0.000
   0.21276596  0.21276596  0.00000000       0.000
   0.22340426  0.22340426  0.00000000       0.000
   0.23404255  0.23404255  0.00000000       0.000
[...]
   0.08484848  0.16969697  0.00000000       0.000
   0.07878788  0.15757576  0.00000000       0.000
   0.07272727  0.14545455  0.00000000       0.000
   0.06666667  0.13333333  0.00000000       0.000
   0.06060606  0.12121212  0.00000000       0.000
   0.05454545  0.10909091  0.00000000       0.000
   0.04848485  0.09696970  0.00000000       0.000
   0.04242424  0.08484848  0.00000000       0.000
   0.03636364  0.07272727  0.00000000       0.000
   0.03030303  0.06060606  0.00000000       0.000
   0.02424242  0.04848485  0.00000000       0.000
   0.01818182  0.03636364  0.00000000       0.000
   0.01212121  0.02424242  0.00000000       0.000
   0.00606061  0.01212121  0.00000000       0.000
   0.00000000  0.00000000  0.00000000       0.000

 position of ions in fractional coordinates (direct lattice)
   0.00000000  0.00000000  0.50000000
   0.33333334  0.33333334  0.50000000

 position of ions in cartesian coordinates  (Angst):
   0.00000000  0.00000000  6.00000000
   1.23406666  0.71248872  6.00000000

 k-point   1 :   0.0000 0.0000 0.0000  plane waves:    1707
 k-point   2 :   0.0556 0.0000 0.0000  plane waves:    1710
 k-point   3 :   0.1111 0.0000 0.0000  plane waves:    1720
 k-point   4 :   0.1667 0.0000 0.0000  plane waves:    1722
 k-point   5 :   0.2222 0.0000 0.0000  plane waves:    1724
 k-point   6 :   0.2778 0.0000 0.0000  plane waves:    1728
 k-point   7 :   0.3333 0.0000 0.0000  plane waves:    1710
 k-point   8 :   0.3889 0.0000 0.0000  plane waves:    1694
 k-point   9 :   0.4444 0.0000 0.0000  plane waves:    1698
 k-point  10 :   0.5000 0.0000 0.0000  plane waves:    1692
 k-point  11 :   0.1111 0.0556 0.0000  plane waves:    1723
 k-point  12 :   0.1667 0.0556 0.0000  plane waves:    1717
 k-point  13 :   0.2222 0.0556 0.0000  plane waves:    1728
 k-point  14 :   0.2778 0.0556 0.0000  plane waves:    1722
 k-point  15 :   0.3333 0.0556 0.0000  plane waves:    1722
 k-point  16 :   0.3889 0.0556 0.0000  plane waves:    1698
 k-point  17 :   0.4444 0.0556 0.0000  plane waves:    1691
 k-point  18 :   0.5000 0.0556 0.0000  plane waves:    1704
 k-point  19 :   0.2222 0.1111 0.0000  plane waves:    1707
 k-point  20 :   0.2778 0.1111 0.0000  plane waves:    1717
 k-point  21 :   0.3333 0.1111 0.0000  plane waves:    1718
 k-point  22 :   0.3889 0.1111 0.0000  plane waves:    1712
 k-point  23 :   0.4444 0.1111 0.0000  plane waves:    1702
 k-point  24 :   0.5000 0.1111 0.0000  plane waves:    1697
 k-point  25 :  -0.4444 0.1111 0.0000  plane waves:    1696
 k-point  26 :   0.3333 0.1667 0.0000  plane waves:    1727
 k-point  27 :   0.3889 0.1667 0.0000  plane waves:    1709
 k-point  28 :   0.4444 0.1667 0.0000  plane waves:    1694
 k-point  29 :   0.5000 0.1667 0.0000  plane waves:    1695
 k-point  30 :  -0.4444 0.1667 0.0000  plane waves:    1691
 k-point  31 :   0.4444 0.2222 0.0000  plane waves:    1689
 k-point  32 :   0.5000 0.2222 0.0000  plane waves:    1693
 k-point  33 :  -0.4444 0.2222 0.0000  plane waves:    1685
 k-point  34 :  -0.3889 0.2222 0.0000  plane waves:    1688
 k-point  35 :  -0.4444 0.2778 0.0000  plane waves:    1683
 k-point  36 :  -0.3889 0.2778 0.0000  plane waves:    1684
 k-point  37 :  -0.3333 0.3333 0.0000  plane waves:    1698
 k-point  38 :   0.0000 0.0000 0.0000  plane waves:    1707
 k-point  39 :   0.0106 0.0106 0.0000  plane waves:    1711
 k-point  40 :   0.0213 0.0213 0.0000  plane waves:    1711
 k-point  41 :   0.0319 0.0319 0.0000  plane waves:    1714
 k-point  42 :   0.0426 0.0426 0.0000  plane waves:    1708
 k-point  43 :   0.0532 0.0532 0.0000  plane waves:    1706
 k-point  44 :   0.0638 0.0638 0.0000  plane waves:    1718
 k-point  45 :   0.0745 0.0745 0.0000  plane waves:    1718
 k-point  46 :   0.0851 0.0851 0.0000  plane waves:    1728
 k-point  47 :   0.0957 0.0957 0.0000  plane waves:    1728
 k-point  48 :   0.1064 0.1064 0.0000  plane waves:    1728
 k-point  49 :   0.1170 0.1170 0.0000  plane waves:    1720
 k-point  50 :   0.1277 0.1277 0.0000  plane waves:    1730
 k-point  51 :   0.1383 0.1383 0.0000  plane waves:    1730
 k-point  52 :   0.1489 0.1489 0.0000  plane waves:    1726
 k-point  53 :   0.1596 0.1596 0.0000  plane waves:    1726
 k-point  54 :   0.1702 0.1702 0.0000  plane waves:    1722
 k-point  55 :   0.1809 0.1809 0.0000  plane waves:    1720
 k-point  56 :   0.1915 0.1915 0.0000  plane waves:    1720
 k-point  57 :   0.2021 0.2021 0.0000  plane waves:    1716
 k-point  58 :   0.2128 0.2128 0.0000  plane waves:    1720
 k-point  59 :   0.2234 0.2234 0.0000  plane waves:    1724
 k-point  60 :   0.2340 0.2340 0.0000  plane waves:    1722
[...]
 k-point 155 :   0.0848 0.1697 0.0000  plane waves:    1713
 k-point 156 :   0.0788 0.1576 0.0000  plane waves:    1717
 k-point 157 :   0.0727 0.1455 0.0000  plane waves:    1721
 k-point 158 :   0.0667 0.1333 0.0000  plane waves:    1725
 k-point 159 :   0.0606 0.1212 0.0000  plane waves:    1727
 k-point 160 :   0.0545 0.1091 0.0000  plane waves:    1727
 k-point 161 :   0.0485 0.0970 0.0000  plane waves:    1729
 k-point 162 :   0.0424 0.0848 0.0000  plane waves:    1725
 k-point 163 :   0.0364 0.0727 0.0000  plane waves:    1713
 k-point 164 :   0.0303 0.0606 0.0000  plane waves:    1713
 k-point 165 :   0.0242 0.0485 0.0000  plane waves:    1713
 k-point 166 :   0.0182 0.0364 0.0000  plane waves:    1713
 k-point 167 :   0.0121 0.0242 0.0000  plane waves:    1713
 k-point 168 :   0.0061 0.0121 0.0000  plane waves:    1709
 k-point 169 :   0.0000 0.0000 0.0000  plane waves:    1707

 maximum and minimum number of plane-waves per node :      1730     1676

 maximum number of plane-waves:      1730
 maximum index in each direction:
   IXMAX=    5   IYMAX=    4   IZMAX=   22
   IXMIN=   -5   IYMIN=   -5   IZMIN=  -22

 serial   3D FFT for wavefunctions
 parallel 3D FFT for charge:
    minimum data exchange during FFTs selected (reduces bandwidth)

 Broyden mixing: mesh for mixing (old mesh)
   NGX =  9   NGY =  9   NGZ = 45
  (NGX  = 36   NGY  = 36   NGZ  =180)
  gives a total of   3645 points

 initial charge density was supplied:
 charge density of overlapping atoms calculated
 number of electron       8.0000000 magnetization
 keeping initial charge density in first step

 Maximum index for augmentation-charges          588 (set IRDMAX)

 First call to EWALD:  gamma=   0.445
 Maximum number of real-space cells 5x 5x 1
 Maximum number of reciprocal cells 2x 2x 7

--------------------------------------- Iteration      1(   1)  ---------------------------------------

 eigenvalue-minimisations  : 10140
 total energy-change (2. order) :-0.2808869E+01  (-0.4317045E+03)
 number of electron       8.0000000 magnetization
 augmentation part        8.0000000 magnetization

 Free energy of the ion-electron system (eV)
  alpha Z        PSCENC =         5.19040345
  Ewald energy   TEWEN  =       560.32934460
  -Hartree energ DENC   =      -785.47972126
  -exchange      EXHF   =         0.00000000
  -V(xc)+E(xc)   XCENC  =        26.34816653
  PAW double counting   =       217.04409276     -218.18290438
  entropy T*S    EENTRO =        -0.00000000
  eigenvalues    EBANDS =      -102.35603775
  atomic energy  EATOM  =       294.29778662
  Solvation  Ediel_sol  =         0.00000000
  free energy    TOTEN  =        -2.80886943 eV

  energy without entropy =       -2.80886943  energy(sigma->0) =       -2.80886943

[...]

 Broyden mixing:
  rms(total) = 0.62872E+00    rms(broyden)= 0.62865E+00
  rms(prec ) = 0.74379E+00
  weight for this iteration     100.00

[...]

 eigenvalue-minimisations  : 13290
 total energy-change (2. order) : 0.9043105E+00  (-0.8840522E-01)
 number of electron       7.9999997 magnetization
 augmentation part        0.2031592 magnetization

[...]

 eigenvalues of (default mixing * dielectric matrix)
  average eigenvalue GAMMA=   2.1966
  2.1966

[...]

 eigenvalue-minimisations  : 13620
 total energy-change (2. order) : 0.3143761E-02  (-0.2263730E-03)
 number of electron       7.9999997 magnetization
 augmentation part        0.1917135 magnetization

[...]

 Broyden mixing:
  rms(total) = 0.15989E-04    rms(broyden)= 0.15987E-04
  rms(prec ) = 0.16964E-04
  weight for this iteration     100.00

 eigenvalues of (default mixing * dielectric matrix)
  average eigenvalue GAMMA=   2.8464
  9.4319  4.7085  3.2219  2.8895  2.4736  2.4736  1.9909  0.9950  1.0041  1.0041
  1.1171

[...]

--------------------------------------- Iteration      1(  17)  ---------------------------------------

 eigenvalue-minimisations  : 13230
 total energy-change (2. order) :-0.3732600E-07  (-0.6182456E-08)
 number of electron       7.9999997 magnetization
 augmentation part        0.1916367 magnetization

 Free energy of the ion-electron system (eV)
  alpha Z        PSCENC =         5.19040345
  Ewald energy   TEWEN  =       560.32934460
  -Hartree energ DENC   =      -817.36207994
  -exchange      EXHF   =         0.00000000
  -V(xc)+E(xc)   XCENC  =        27.52792238
  PAW double counting   =       831.55512928     -832.92187409
  entropy T*S    EENTRO =        -0.00034827
  eigenvalues    EBANDS =       -87.06339758
  atomic energy  EATOM  =       294.29778662
  Solvation  Ediel_sol  =         0.00000000
  free energy    TOTEN  =       -18.44711354 eV

  energy without entropy =      -18.44676528  energy(sigma->0) =      -18.44693941

 average (electrostatic) potential at core
  the test charge radii are     0.6991
  (the norm of the test charge is              1.0000)
       1 -57.1966       2 -57.1966

 E-fermi :  -1.7581     XC(G=0):  -3.5698     alpha+bet : -3.1663

 Fermi energy:        -1.7581054221

 k-point     1 :       0.0000    0.0000    0.0000
  band No.  band energies     occupation
      1     -21.2496      2.00000
      2      -9.3553      2.00000
      3      -4.7873      2.00000
      4      -4.7873      2.00000
      5       1.4635      0.00000
      6       2.6049      0.00000
      7       3.4626      0.00000
      8       6.5464      0.00000
      9       6.5464      0.00000
     10       6.5863      0.00000
     11       7.8294      0.00000
     12       9.6272      0.00000
     13      10.6842      0.00000
     14      12.8188      0.00000
     15      14.6510      0.00000
     16      20.7032      0.00000
     17      20.9997      0.00000
     18      23.7373      0.00000
     19      26.3936      0.00000
     20      26.3936      0.00000
     21      29.0528      0.00000
     22      29.8060      0.00000
     23      29.8060      0.00000
     24      33.4006      0.00000
     25      33.4006      0.00000
     26      33.6779      0.00000
     27      33.8938      0.00000
     28      33.8938      0.00000
     29      34.3650      0.00000
     30      34.7900      0.00000

[...]

 k-point   169 :       0.0000    0.0000    0.0000
  band No.  band energies     occupation
      1    -128.6899      2.00000
      2     -21.2497      2.00000
      3      -9.3553      2.00000
      4      -4.7873      2.00000
      5      -4.7873      2.00000
      6       1.4635      0.00000
      7       2.6049      0.00000
      8       3.4626      0.00000
      9       6.5464      0.00000
     10       6.5464      0.00000
     11       6.5863      0.00000
     12       7.8294      0.00000
     13       9.6272      0.00000
     14      10.6841      0.00000
     15      12.8188      0.00000
     16      14.6510      0.00000
     17      20.7032      0.00000
     18      20.9997      0.00000
     19      23.7373      0.00000
     20      26.3936      0.00000
     21      26.3936      0.00000
     22      29.0528      0.00000
     23      29.8060      0.00000
     24      29.8060      0.00000
     25      33.4006      0.00000
     26      33.4006      0.00000
     27      33.6779      0.00000
     28      33.8938      0.00000
     29      33.8938      0.00000
     30      34.3650      0.00000

 soft charge-density along one line, spin component           1
         0         1         2         3         4         5         6         7         8         9
 total charge-density along one line

------------------------ aborting loop because EDIFF is reached ----------------------------------------

  FORCE on cell =-STRESS in cart. coord.  units (eV):
  Direction    XX          YY          ZZ          XY          YZ          ZX
  Alpha Z     5.19040     5.19040     5.19040
  Ewald     828.96970   828.96971 -1097.61002    -0.00001     0.00000    -0.00000
  Hartree   806.02250   806.02250  -794.68291    -0.00000    -0.00000    -0.00000
  E(xc)     -29.69310   -29.69310   -30.80606     0.00000     0.00000     0.00000
  Local   -1722.54351 -1722.54352  1787.77751     0.00001     0.00000     0.00000
  n-local    -7.52263    -6.69759    -6.49103    -0.07410     0.00000    -0.00000
  augment    -0.77659    -0.77658    -0.71631    -0.00001    -0.00000    -0.00000
  Kinetic   123.72991   116.15687   137.32810     0.16456     0.00000    -0.00000
  Fock        0.00000     0.00000     0.00000     0.00000     0.00000     0.00000
  Total       0.00269     0.00269    -0.01033    -0.00000    -0.00000    -0.00000
  in kB       0.06812     0.06812    -0.26135    -0.00000    -0.00000    -0.00000

 VOLUME and BASIS-vectors are now :
  energy-cutoff  :      520.00
  volume of cell :       63.31
      direct lattice vectors                 reciprocal lattice vectors
     2.468133242  0.000000000  0.000000000     0.405164512 -0.233921840  0.000000000
     1.234066621  2.137466087  0.000000000     0.000000000  0.467843680  0.000000000
     0.000000000  0.000000000 12.000000000     0.000000000  0.000000000  0.083333333

  length of vectors
     2.468133242  2.468133242 12.000000000     0.467843680  0.467843680  0.083333333

 FORCES acting on ions
    electron-ion (+dipol)            ewald-force                    non-local-force                 convergence-correction
   -.851E-06 -.498E-06 -.211E-06   0.648E-05 0.385E-05 0.322E-19   -.278E-16 0.000E+00 0.000E+00   -.552E-10 -.320E-10 0.484E-13
   -.606E-05 -.360E-05 0.211E-06   -.648E-05 -.385E-05 -.322E-19   0.139E-16 0.000E+00 0.000E+00   0.589E-10 0.341E-10 0.479E-13
   -.691E-05 -.409E-05 -.130E-11   -.114E-13 0.255E-14 0.000E+00   -.139E-16 0.000E+00 0.000E+00   0.367E-11 0.217E-11 0.963E-13

 POSITION                                       TOTAL-FORCE (eV/Angst)
      0.00000      0.00000      6.00000        -0.000000     -0.000000      0.000000
      1.23407      0.71249      6.00000         0.000000      0.000000      0.000000
    total drift:                               -0.000007     -0.000004     -0.000000

  FREE ENERGIE OF THE ION-ELECTRON SYSTEM (eV)
  free  energy   TOTEN  =       -18.44711354 eV

  energy  without entropy=      -18.44676528  energy(sigma->0) =      -18.44693941

 writing wavefunctions