 vasp.6.3.0 20Jan22 (build Jan 26 2022 20:51:09) complex

 executed on             LinuxIFC date 2023.07.15  22:52:21

 INCAR:
   ISTART = 1            (Read existing wavefunction
   ICHARG = 11
   ISPIN = 1            (Non-Spin polarised DFT)
   LREAL = .FALSE.       (Projection operators: automatic)
   ENCUT = 520        (Cut-off energy for plane wave basis set, in eV)
   PREC = A       (Precision level)
   LWAVE = F        (Write WAVECAR or not)
   LCHARG = F        (Write CHGCAR or not)
   ADDGRID = F        (Increase grid
   ISMEAR = 0            (Gaussian smearing
   SIGMA = 0.05         (Smearing value in eV
   NELM = 200
   EDIFF = 1E-6        (SCF energy convergence
   NSW = 0          (Max ionic steps)
   IBRION = -1            (Algorithm: 0-MD
   ISIF = 3           (Stress/relaxation: 2-Ions, 3-Shape/Ions/V, 4-Shape/Ions)
   EDIFFG = -1E-05        (Ionic convergence
   NCORE = 15

 POTCAR:    PAW_PBE C 08Apr2002
|           W    W    AA    RRRRR   N    N  II  N    N   GGGG   !!!           |
|           W    W   A  A   R    R  NN   N  II  NN   N  G    G  !!!           |
|           W    W  A    A  R    R  N N  N  II  N N  N  G       !!!           |
|           W WW W  AAAAAA  RRRRR   N  N N  II  N  N N  G  GGG   !            |
|           WW  WW  A    A  R   R   N   NN  II  N   NN  G    G                |
|           W    W  A    A  R    R  N    N  II  N    N   GGGG   !!!           |
|     For optimal performance we recommend to set                             |
|       NCORE = 2 up to number-of-cores-per-socket                            |
|     This setting can greatly improve the performance of VASP for DFT.       |
|     The default, NCORE=1 might be grossly inefficient on modern             |
|     multi-core architectures or massively parallel machines. Do your        |
|     Unfortunately you need to use the default for GW and RPA                |
|     calculations (for HF NCORE is supported but not extensively tested      |
|     yet).                                                                   |

 POTCAR:    PAW_PBE C 08Apr2002
   VRHFIN =C: s2p2

   TITEL  = PAW_PBE C 08Apr2002
   POMASS =   12.011; ZVAL   =    4.000    mass and valenz
   ENMAX  =  400.000; ENMIN  =  300.000 eV

  PAW_PBE C 08Apr2002                   :

 POSCAR: C4
  positions in direct lattice
  velocities in cartesian coordinates
 exchange correlation table for  LEXCH =        8
   RHO(1)=    0.500       N(1)  =     2000
   RHO(2)=  100.500       N(2)  =     4000

 ion  position               nearest neighbor table
   1  0.000  0.000  0.500-   2 1.42   2 1.42   2 1.42
   2  0.333  0.333  0.500-   1 1.42   1 1.42   1 1.42

  LATTYP: Found a hexagonal cell.
 ALAT       =     2.4681332416
 C/A-ratio  =     4.8619741422

  Lattice vectors:

 A1 = (  -1.2340666208,  -2.1374660871,   0.0000000000)
 A2 = (   2.4681332416,   0.0000000000,   0.0000000000)
 A3 = (   0.0000000000,   0.0000000000,  12.0000000000)

Analysis of symmetry for initial positions (statically):
 Subroutine PRICEL returns:
 Original cell was already a primitive cell.

 Routine SETGRP: Setting up the symmetry group for a
 hexagonal supercell.

 Subroutine GETGRP returns: Found 24 space group operations
 (whereof 12 operations were pure point group operations)
 out of a pool of 24 trial point group operations.

The static configuration has the point symmetry D_3h.
 The point group associated with its full space group is D_6h.

Analysis of symmetry for dynamics (positions and initial velocities):
 Subroutine PRICEL returns:
 Original cell was already a primitive cell.

 Routine SETGRP: Setting up the symmetry group for a
 hexagonal supercell.

 Subroutine GETGRP returns: Found 24 space group operations
 (whereof 12 operations were pure point group operations)
 out of a pool of 24 trial point group operations.

The dynamic configuration has the point symmetry D_3h.
 The point group associated with its full space group is D_6h.

 Subroutine INISYM returns: Found 24 space group operations
 (whereof 12 operations are pure point group operations),
 and found     1 'primitive' translations

                                     Primitive cell

  volume of cell :      63.3066

  direct lattice vectors                    reciprocal lattice vectors
     2.468133242  0.000000000  0.000000000     0.405164512 -0.233921840  0.000000000
     1.234066621  2.137466087  0.000000000     0.000000000  0.467843680  0.000000000
     0.000000000  0.000000000 12.000000000     0.000000000  0.000000000  0.083333333

  length of vectors
     2.468133242  2.468133242 12.000000000     0.467843680  0.467843680  0.083333333

  position of ions in fractional coordinates (direct lattice)
     0.000000000  0.000000000  0.500000000
     0.333333343  0.333333343  0.500000000

  ion indices of the primitive-cell ions
   primitive index   ion index
                 1           1
                 2           2

 KPOINTS: K-Path Generated by VASPKIT.

Interpolating k-points between supplied coordinates.

 Line segments in fractional coordinates (reciprocal lattice):
    0.000000  0.000000  0.000000  ...  0.500000  0.500000  0.000000
    0.500000  0.500000  0.000000  ...  0.333333  0.666667  0.000000
    0.333333  0.666667  0.000000  ...  0.000000  0.000000  0.000000

 Generated    20 points on each line segment, for a total of     60 k-points:

 Following reciprocal coordinates:
            Coordinates               Weight
  0.000000  0.000000  0.000000      0.016667
  0.026316  0.026316  0.000000      0.016667
  0.052632  0.052632  0.000000      0.016667
  0.078947  0.078947  0.000000      0.016667
  0.105263  0.105263  0.000000      0.016667
  0.131579  0.131579  0.000000      0.016667
  0.157895  0.157895  0.000000      0.016667
  0.184211  0.184211  0.000000      0.016667
  0.210526  0.210526  0.000000      0.016667
  0.236842  0.236842  0.000000      0.016667
  0.263158  0.263158  0.000000      0.016667
  0.289474  0.289474  0.000000      0.016667
  0.315789  0.315789  0.000000      0.016667
  0.342105  0.342105  0.000000      0.016667
  0.368421  0.368421  0.000000      0.016667
  0.394737  0.394737  0.000000      0.016667
  0.421053  0.421053  0.000000      0.016667
  0.447368  0.447368  0.000000      0.016667
  0.473684  0.473684  0.000000      0.016667
  0.500000  0.500000  0.000000      0.016667
  0.500000  0.500000  0.000000      0.016667
  0.491228  0.508772  0.000000      0.016667
  0.482456  0.517544  0.000000      0.016667
  0.473684  0.526316  0.000000      0.016667
  0.464912  0.535088  0.000000      0.016667
  0.456140  0.543860  0.000000      0.016667
  0.447368  0.552632  0.000000      0.016667
  0.438596  0.561404  0.000000      0.016667
  0.429825  0.570175  0.000000      0.016667
  0.421053  0.578947  0.000000      0.016667
  0.412281  0.587719  0.000000      0.016667
  0.403509  0.596491  0.000000      0.016667
  0.394737  0.605263  0.000000      0.016667
  0.385965  0.614035  0.000000      0.016667
  0.377193  0.622807  0.000000      0.016667
  0.368421  0.631579  0.000000      0.016667
  0.359649  0.640351  0.000000      0.016667
  0.350877  0.649123  0.000000      0.016667
  0.342105  0.657895  0.000000      0.016667
  0.333333  0.666667  0.000000      0.016667
  0.333333  0.666667  0.000000      0.016667
  0.315789  0.631579  0.000000      0.016667
  0.298246  0.596491  0.000000      0.016667
  0.280702  0.561404  0.000000      0.016667
  0.263158  0.526316  0.000000      0.016667
  0.245614  0.491228  0.000000      0.016667
  0.228070  0.456140  0.000000      0.016667
  0.210526  0.421053  0.000000      0.016667
  0.192982  0.385965  0.000000      0.016667
  0.175439  0.350877  0.000000      0.016667
  0.157895  0.315789  0.000000      0.016667
  0.140351  0.280702  0.000000      0.016667
  0.122807  0.245614  0.000000      0.016667
  0.105263  0.210526  0.000000      0.016667
  0.087719  0.175439  0.000000      0.016667
  0.070175  0.140351  0.000000      0.016667
  0.052632  0.105263  0.000000      0.016667
  0.035088  0.070175  0.000000      0.016667
  0.017544  0.035088  0.000000      0.016667
  0.000000  0.000000  0.000000      0.016667

 Following cartesian coordinates:
            Coordinates               Weight
  0.000000  0.000000  0.000000      0.016667
  0.010662  0.006156  0.000000      0.016667
  0.021324  0.012312  0.000000      0.016667
  0.031987  0.018468  0.000000      0.016667
  0.042649  0.024623  0.000000      0.016667
  0.053311  0.030779  0.000000      0.016667
  0.063973  0.036935  0.000000      0.016667
  0.074636  0.043091  0.000000      0.016667
  0.085298  0.049247  0.000000      0.016667
  0.095960  0.055403  0.000000      0.016667
  0.106622  0.061558  0.000000      0.016667
  0.117284  0.067714  0.000000      0.016667
  0.127947  0.073870  0.000000      0.016667
  0.138609  0.080026  0.000000      0.016667
  0.149271  0.086182  0.000000      0.016667
  0.159933  0.092338  0.000000      0.016667
  0.170596  0.098493  0.000000      0.016667
  0.181258  0.104649  0.000000      0.016667
  0.191920  0.110805  0.000000      0.016667
  0.202582  0.116961  0.000000      0.016667
  0.202582  0.116961  0.000000      0.016667
  0.199028  0.123117  0.000000      0.016667
  0.195474  0.129273  0.000000      0.016667
  0.191920  0.135428  0.000000      0.016667
  0.188366  0.141584  0.000000      0.016667
  0.184812  0.147740  0.000000      0.016667
  0.181258  0.153896  0.000000      0.016667
  0.177704  0.160052  0.000000      0.016667
  0.174150  0.166208  0.000000      0.016667
  0.170596  0.172363  0.000000      0.016667
  0.167042  0.178519  0.000000      0.016667
  0.163487  0.184675  0.000000      0.016667
  0.159933  0.190831  0.000000      0.016667
  0.156379  0.196987  0.000000      0.016667
  0.152825  0.203143  0.000000      0.016667
  0.149271  0.209298  0.000000      0.016667
  0.145717  0.215454  0.000000      0.016667
  0.142163  0.221610  0.000000      0.016667
  0.138609  0.227766  0.000000      0.016667
  0.135055  0.233922  0.000000      0.016667
  0.135055  0.233922  0.000000      0.016667
  0.127947  0.221610  0.000000      0.016667
  0.120839  0.209298  0.000000      0.016667
  0.113730  0.196987  0.000000      0.016667
  0.106622  0.184675  0.000000      0.016667
  0.099514  0.172363  0.000000      0.016667
  0.092406  0.160052  0.000000      0.016667
  0.085298  0.147740  0.000000      0.016667
  0.078190  0.135428  0.000000      0.016667
  0.071081  0.123117  0.000000      0.016667
  0.063973  0.110805  0.000000      0.016667
  0.056865  0.098493  0.000000      0.016667
  0.049757  0.086182  0.000000      0.016667
  0.042649  0.073870  0.000000      0.016667
  0.035541  0.061558  0.000000      0.016667
  0.028433  0.049247  0.000000      0.016667
  0.021324  0.036935  0.000000      0.016667
  0.014216  0.024623  0.000000      0.016667
  0.007108  0.012312  0.000000      0.016667
  0.000000  0.000000  0.000000      0.016667

 SYSTEM =  unknown system
 POSCAR =  C4

 Startparameter for this run:
   NWRITE =      2    write-flag & timer
   PREC   = a         normal or accurate (medium, high low for compatibility)
   ISTART =      1    job   : 0-new  1-cont  2-samecut
[...]
     1.234066621  2.137466087  0.000000000     0.000000000  0.467843680  0.000000000
     0.000000000  0.000000000 12.000000000     0.000000000  0.000000000  0.083333333

  length of vectors

 k-points in units of 2pi/SCALE and weight: K-Path Generated by VASPKIT.
   0.00000000  0.00000000  0.00000000       0.017
   0.01066222  0.00615584  0.00000000       0.017
   0.02132445  0.01231168  0.00000000       0.017
   0.03198667  0.01846751  0.00000000       0.017
   0.04264890  0.02462335  0.00000000       0.017
   0.05331112  0.03077919  0.00000000       0.017
   0.06397334  0.03693503  0.00000000       0.017
   0.07463557  0.04309087  0.00000000       0.017
   0.08529779  0.04924670  0.00000000       0.017
   0.09596002  0.05540254  0.00000000       0.017
   0.10662224  0.06155838  0.00000000       0.017
   0.11728446  0.06771422  0.00000000       0.017
   0.12794669  0.07387005  0.00000000       0.017
   0.13860891  0.08002589  0.00000000       0.017
   0.14927114  0.08618173  0.00000000       0.017
   0.15993336  0.09233757  0.00000000       0.017
   0.17059558  0.09849341  0.00000000       0.017
   0.18125781  0.10464924  0.00000000       0.017
   0.19192003  0.11080508  0.00000000       0.017
   0.20258226  0.11696092  0.00000000       0.017
   0.20258226  0.11696092  0.00000000       0.017
   0.19902818  0.12311676  0.00000000       0.017
   0.19547411  0.12927260  0.00000000       0.017
   0.19192003  0.13542843  0.00000000       0.017
   0.18836596  0.14158427  0.00000000       0.017
   0.18481188  0.14774011  0.00000000       0.017
   0.18125781  0.15389595  0.00000000       0.017
   0.17770373  0.16005179  0.00000000       0.017
   0.17414966  0.16620762  0.00000000       0.017
   0.17059558  0.17236346  0.00000000       0.017
   0.16704151  0.17851930  0.00000000       0.017
   0.16348743  0.18467514  0.00000000       0.017
   0.15993336  0.19083097  0.00000000       0.017
   0.15637929  0.19698681  0.00000000       0.017
   0.15282521  0.20314265  0.00000000       0.017
   0.14927114  0.20929849  0.00000000       0.017
   0.14571706  0.21545433  0.00000000       0.017
   0.14216299  0.22161016  0.00000000       0.017
   0.13860891  0.22776600  0.00000000       0.017
   0.13505484  0.23392184  0.00000000       0.017
   0.13505484  0.23392184  0.00000000       0.017
   0.12794669  0.22161016  0.00000000       0.017
   0.12083854  0.20929849  0.00000000       0.017
   0.11373039  0.19698681  0.00000000       0.017
   0.10662224  0.18467514  0.00000000       0.017
   0.09951409  0.17236346  0.00000000       0.017
   0.09240594  0.16005179  0.00000000       0.017
   0.08529779  0.14774011  0.00000000       0.017
   0.07818964  0.13542843  0.00000000       0.017
   0.07108149  0.12311676  0.00000000       0.017
   0.06397334  0.11080508  0.00000000       0.017
   0.05686519  0.09849341  0.00000000       0.017
   0.04975705  0.08618173  0.00000000       0.017
   0.04264890  0.07387005  0.00000000       0.017
   0.03554075  0.06155838  0.00000000       0.017
   0.02843260  0.04924670  0.00000000       0.017
   0.02132445  0.03693503  0.00000000       0.017
   0.01421630  0.02462335  0.00000000       0.017
   0.00710815  0.01231168  0.00000000       0.017
   0.00000000  0.00000000  0.00000000       0.017

 k-points in reciprocal lattice and weights: K-Path Generated by VASPKIT.
   0.00000000  0.00000000  0.00000000       0.017
   0.02631579  0.02631579  0.00000000       0.017
   0.05263158  0.05263158  0.00000000       0.017
   0.07894737  0.07894737  0.00000000       0.017
   0.10526316  0.10526316  0.00000000       0.017
   0.13157895  0.13157895  0.00000000       0.017
   0.15789474  0.15789474  0.00000000       0.017
   0.18421053  0.18421053  0.00000000       0.017
   0.21052632  0.21052632  0.00000000       0.017
   0.23684211  0.23684211  0.00000000       0.017
   0.26315789  0.26315789  0.00000000       0.017
   0.28947368  0.28947368  0.00000000       0.017
   0.31578947  0.31578947  0.00000000       0.017
   0.34210526  0.34210526  0.00000000       0.017
   0.36842105  0.36842105  0.00000000       0.017
   0.39473684  0.39473684  0.00000000       0.017
   0.42105263  0.42105263  0.00000000       0.017
   0.44736842  0.44736842  0.00000000       0.017
   0.47368421  0.47368421  0.00000000       0.017
   0.50000000  0.50000000  0.00000000       0.017
   0.50000000  0.50000000  0.00000000       0.017
   0.49122807  0.50877193  0.00000000       0.017
   0.48245614  0.51754386  0.00000000       0.017
   0.47368421  0.52631579  0.00000000       0.017
   0.46491228  0.53508772  0.00000000       0.017
   0.45614035  0.54385965  0.00000000       0.017
   0.44736842  0.55263158  0.00000000       0.017
   0.43859649  0.56140351  0.00000000       0.017
   0.42982456  0.57017544  0.00000000       0.017
   0.42105263  0.57894737  0.00000000       0.017
   0.41228070  0.58771930  0.00000000       0.017
   0.40350877  0.59649123  0.00000000       0.017
   0.39473684  0.60526316  0.00000000       0.017
   0.38596491  0.61403509  0.00000000       0.017
   0.37719298  0.62280702  0.00000000       0.017
   0.36842105  0.63157895  0.00000000       0.017
   0.35964912  0.64035088  0.00000000       0.017
   0.35087719  0.64912281  0.00000000       0.017
   0.34210526  0.65789474  0.00000000       0.017
   0.33333333  0.66666667  0.00000000       0.017
   0.33333333  0.66666667  0.00000000       0.017
   0.31578947  0.63157895  0.00000000       0.017
   0.29824561  0.59649123  0.00000000       0.017
   0.28070175  0.56140351  0.00000000       0.017
   0.26315789  0.52631579  0.00000000       0.017
   0.24561404  0.49122807  0.00000000       0.017
   0.22807018  0.45614035  0.00000000       0.017
   0.21052632  0.42105263  0.00000000       0.017
   0.19298246  0.38596491  0.00000000       0.017
   0.17543860  0.35087719  0.00000000       0.017
   0.15789474  0.31578947  0.00000000       0.017
   0.14035088  0.28070175  0.00000000       0.017
   0.12280702  0.24561404  0.00000000       0.017
   0.10526316  0.21052632  0.00000000       0.017
   0.08771930  0.17543860  0.00000000       0.017
   0.07017544  0.14035088  0.00000000       0.017
   0.05263158  0.10526316  0.00000000       0.017
   0.03508772  0.07017544  0.00000000       0.017
   0.01754386  0.03508772  0.00000000       0.017
   0.00000000  0.00000000  0.00000000       0.017

 position of ions in fractional coordinates (direct lattice)
   0.00000000  0.00000000  0.50000000
   0.33333334  0.33333334  0.50000000

 position of ions in cartesian coordinates  (Angst):
   0.00000000  0.00000000  6.00000000
   1.23406666  0.71248872  6.00000000

 k-point   1 :   0.0000 0.0000 0.0000  plane waves:    1707
 k-point   2 :   0.0263 0.0263 0.0000  plane waves:    1712
 k-point   3 :   0.0526 0.0526 0.0000  plane waves:    1706
 k-point   4 :   0.0789 0.0789 0.0000  plane waves:    1726
 k-point   5 :   0.1053 0.1053 0.0000  plane waves:    1728
 k-point   6 :   0.1316 0.1316 0.0000  plane waves:    1726
 k-point   7 :   0.1579 0.1579 0.0000  plane waves:    1730
 k-point   8 :   0.1842 0.1842 0.0000  plane waves:    1716
 k-point   9 :   0.2105 0.2105 0.0000  plane waves:    1716
 k-point  10 :   0.2368 0.2368 0.0000  plane waves:    1718
 k-point  11 :   0.2632 0.2632 0.0000  plane waves:    1720
 k-point  12 :   0.2895 0.2895 0.0000  plane waves:    1724
 k-point  13 :   0.3158 0.3158 0.0000  plane waves:    1714
 k-point  14 :   0.3421 0.3421 0.0000  plane waves:    1708
 k-point  15 :   0.3684 0.3684 0.0000  plane waves:    1696
 k-point  16 :   0.3947 0.3947 0.0000  plane waves:    1694
 k-point  17 :   0.4211 0.4211 0.0000  plane waves:    1686
 k-point  18 :   0.4474 0.4474 0.0000  plane waves:    1700
 k-point  19 :   0.4737 0.4737 0.0000  plane waves:    1686
 k-point  20 :   0.5000 0.5000 0.0000  plane waves:    1692
 k-point  21 :   0.5000 0.5000 0.0000  plane waves:    1692
 k-point  22 :   0.4912 0.5088 0.0000  plane waves:    1690
 k-point  23 :   0.4825 0.5175 0.0000  plane waves:    1692
 k-point  24 :   0.4737 0.5263 0.0000  plane waves:    1700
 k-point  25 :   0.4649 0.5351 0.0000  plane waves:    1696
 k-point  26 :   0.4561 0.5439 0.0000  plane waves:    1700
 k-point  27 :   0.4474 0.5526 0.0000  plane waves:    1700
 k-point  28 :   0.4386 0.5614 0.0000  plane waves:    1696
 k-point  29 :   0.4298 0.5702 0.0000  plane waves:    1692
 k-point  30 :   0.4211 0.5789 0.0000  plane waves:    1692
 k-point  31 :   0.4123 0.5877 0.0000  plane waves:    1690
 k-point  32 :   0.4035 0.5965 0.0000  plane waves:    1690
 k-point  33 :   0.3947 0.6053 0.0000  plane waves:    1688
 k-point  34 :   0.3860 0.6140 0.0000  plane waves:    1688
 k-point  35 :   0.3772 0.6228 0.0000  plane waves:    1678
 k-point  36 :   0.3684 0.6316 0.0000  plane waves:    1680
 k-point  37 :   0.3596 0.6404 0.0000  plane waves:    1684
 k-point  38 :   0.3509 0.6491 0.0000  plane waves:    1690
 k-point  39 :   0.3421 0.6579 0.0000  plane waves:    1694
 k-point  40 :   0.3333 0.6667 0.0000  plane waves:    1698
 k-point  41 :   0.3333 0.6667 0.0000  plane waves:    1698
 k-point  42 :   0.3158 0.6316 0.0000  plane waves:    1694
 k-point  43 :   0.2982 0.5965 0.0000  plane waves:    1684
 k-point  44 :   0.2807 0.5614 0.0000  plane waves:    1683
 k-point  45 :   0.2632 0.5263 0.0000  plane waves:    1693
 k-point  46 :   0.2456 0.4912 0.0000  plane waves:    1695
 k-point  47 :   0.2281 0.4561 0.0000  plane waves:    1697
 k-point  48 :   0.2105 0.4211 0.0000  plane waves:    1697
 k-point  49 :   0.1930 0.3860 0.0000  plane waves:    1709
 k-point  50 :   0.1754 0.3509 0.0000  plane waves:    1723
 k-point  51 :   0.1579 0.3158 0.0000  plane waves:    1727
 k-point  52 :   0.1404 0.2807 0.0000  plane waves:    1713
 k-point  53 :   0.1228 0.2456 0.0000  plane waves:    1715
 k-point  54 :   0.1053 0.2105 0.0000  plane waves:    1711
 k-point  55 :   0.0877 0.1754 0.0000  plane waves:    1717
 k-point  56 :   0.0702 0.1404 0.0000  plane waves:    1721
 k-point  57 :   0.0526 0.1053 0.0000  plane waves:    1727
 k-point  58 :   0.0351 0.0702 0.0000  plane waves:    1713
 k-point  59 :   0.0175 0.0351 0.0000  plane waves:    1713
 k-point  60 :   0.0000 0.0000 0.0000  plane waves:    1707

 maximum and minimum number of plane-waves per node :       125       97

 maximum number of plane-waves:      1730
 maximum index in each direction:
   IXMAX=    4   IYMAX=    4   IZMAX=   22
   IXMIN=   -5   IYMIN=   -5   IZMIN=  -22

 parallel 3D FFT for wavefunctions:
    minimum data exchange during FFTs selected (reduces bandwidth)
 parallel 3D FFT for charge:
    minimum data exchange during FFTs selected (reduces bandwidth)

 initial charge density was supplied:
 number of electron       7.9999997 magnetization
 keeping initial charge density in first step

 Maximum index for augmentation-charges          588 (set IRDMAX)

 First call to EWALD:  gamma=   0.445
 Maximum number of real-space cells 5x 5x 1
 Maximum number of reciprocal cells 2x 2x 7

--------------------------------------- Iteration      1(   1)  ---------------------------------------

 eigenvalue-minimisations  :  1096
 total energy-change (2. order) :-0.1657227E+02  (-0.5085610E+02)
 number of electron       7.9999997 magnetization
 augmentation part        7.9999997 magnetization

 Free energy of the ion-electron system (eV)
  alpha Z        PSCENC =         5.19040345
  Ewald energy   TEWEN  =       560.32934460
  -Hartree energ DENC   =      -817.36188127
  -exchange      EXHF   =         0.00000000
  -V(xc)+E(xc)   XCENC  =        27.52791154
  PAW double counting   =       831.56450662     -832.93124065
  entropy T*S    EENTRO =        -0.00056967
  eigenvalues    EBANDS =       -85.18853390
  atomic energy  EATOM  =       294.29778662
  Solvation  Ediel_sol  =         0.00000000
  free energy    TOTEN  =       -16.57227266 eV

  energy without entropy =      -16.57170298  energy(sigma->0) =      -16.57198782

[...]

--------------------------------------- Iteration      1(   5)  ---------------------------------------

 eigenvalue-minimisations  :  1416
 total energy-change (2. order) :-0.8940515E-07  (-0.8935634E-07)
 number of electron       7.9999997 magnetization
 augmentation part        7.9999997 magnetization

 Free energy of the ion-electron system (eV)
  alpha Z        PSCENC =         5.19040345
  Ewald energy   TEWEN  =       560.32934460
  -Hartree energ DENC   =      -817.36188127
  -exchange      EXHF   =         0.00000000
  -V(xc)+E(xc)   XCENC  =        27.52791154
  PAW double counting   =       831.56450662     -832.93124065
  entropy T*S    EENTRO =        -0.00188063
  eigenvalues    EBANDS =       -85.91178299
  atomic energy  EATOM  =       294.29778662
  Solvation  Ediel_sol  =         0.00000000
  free energy    TOTEN  =       -17.29683270 eV

  energy without entropy =      -17.29495207  energy(sigma->0) =      -17.29589239

 average (electrostatic) potential at core
  the test charge radii are     0.6991
  (the norm of the test charge is              1.0000)
       1 -57.1967       2 -57.1967

 E-fermi :  -1.7581     XC(G=0):  -3.5709     alpha+bet : -3.1663

 Fermi energy:        -1.7581243597

 k-point     1 :       0.0000    0.0000    0.0000
  band No.  band energies     occupation
      1     -21.2497      2.00000
      2      -9.3553      2.00000
      3      -4.7873      2.00000
      4      -4.7873      2.00000
      5       1.4632      0.00000
      6       2.6052      0.00000
      7       3.4587      0.00000
      8       6.5868      0.00000

[...]

 k-point    60 :       0.0000    0.0000    0.0000
  band No.  band energies     occupation
      1     -21.2497      2.00000
      2      -9.3553      2.00000
      3      -4.7873      2.00000
      4      -4.7873      2.00000
      5       1.4632      0.00000
      6       2.6052      0.00000
      7       3.4587      0.00000
      8       6.5464      0.00000

 soft charge-density along one line, spin component           1
         0         1         2         3         4         5         6         7         8         9
 total charge-density along one line

------------------------ aborting loop because EDIFF is reached ----------------------------------------

  FORCE on cell =-STRESS in cart. coord.  units (eV):
  Direction    XX          YY          ZZ          XY          YZ          ZX
  Alpha Z     5.19040     5.19040     5.19040
  Ewald     828.96970   828.96971 -1097.61002    -0.00001     0.00000    -0.00000
  Hartree   807.41178   807.41178  -795.64435    -0.00000    -0.00000    -0.00000
  E(xc)     -29.69241   -29.69241   -30.80446    -0.00000     0.00000     0.00000
  Local   -1723.87633 -1723.87634  1789.45773     0.00001     0.00000    -0.00000
  n-local    -7.95750    -8.18858    -7.43987    -0.10485     0.00000    -0.00000
  augment    -0.82083    -0.82082    -0.75486    -0.00001     0.00000    -0.00000
  Kinetic   122.63504   122.35961   138.42586     2.96102    -0.00000    -0.00000
  Fock        0.00000     0.00000     0.00000     0.00000     0.00000     0.00000
  Total       1.60661     1.60661     0.82043    -0.00000     0.00000     0.00000
  in kB      40.66041    40.66041    20.76357    -0.00000     0.00000     0.00000

 VOLUME and BASIS-vectors are now :
  energy-cutoff  :      520.00
  volume of cell :       63.31
      direct lattice vectors                 reciprocal lattice vectors
     2.468133242  0.000000000  0.000000000     0.405164512 -0.233921840  0.000000000
     1.234066621  2.137466087  0.000000000     0.000000000  0.467843680  0.000000000
     0.000000000  0.000000000 12.000000000     0.000000000  0.000000000  0.083333333

  length of vectors
     2.468133242  2.468133242 12.000000000     0.467843680  0.467843680  0.083333333

 FORCES acting on ions
    electron-ion (+dipol)            ewald-force                    non-local-force                 convergence-correction
   -.895E-06 -.523E-06 -.222E-06   0.648E-05 0.385E-05 0.322E-19   0.000E+00 0.111E-15 0.000E+00   -.350E-04 -.202E-04 -.187E-10
   -.614E-05 -.365E-05 0.222E-06   -.648E-05 -.385E-05 -.322E-19   -.694E-17 -.111E-15 0.000E+00   0.656E-04 0.379E-04 -.228E-10
   -.704E-05 -.417E-05 -.133E-11   -.114E-13 0.255E-14 0.000E+00   -.694E-17 0.000E+00 0.000E+00   0.306E-04 0.177E-04 -.415E-10

 POSITION                                       TOTAL-FORCE (eV/Angst)
      0.00000      0.00000      6.00000        -0.000000      0.000000      0.000000
      1.23407      0.71249      6.00000         0.000000     -0.000000      0.000000
    total drift:                                0.000024      0.000014     -0.000000

  FREE ENERGIE OF THE ION-ELECTRON SYSTEM (eV)
  free  energy   TOTEN  =       -17.29683270 eV

  energy  without entropy=      -17.29495207  energy(sigma->0) =      -17.29589239