 vasp.6.3.1 04May22 (build Aug 04 2022 13:02:54) complex

 executed on             LinuxIFC date 2023.09.19  21:32:35

 INCAR:
   ISTART = 0            (Read existing wavefunction
   ISPIN = 1            (Non-Spin polarised DFT)
   LREAL = .FALSE.       (Projection operators: automatic)
   ENCUT = 520        (Cut-off energy for plane wave basis set, in eV)
   PREC = A       (Precision level)
   LWAVE = .TRUE.        (Write WAVECAR or not)
   LCHARG = .TRUE.        (Write CHGCAR or not)
   ADDGRID = F      (Increase grid
   ISMEAR = 0            (Gaussian smearing
   SIGMA = 0.05         (Smearing value in eV
   NELM = 200           (Max electronic SCF steps)
   NELMIN = 2            (Min electronic SCF steps)
   EDIFF = 1E-8        (SCF energy convergence
   NSW = 200          (Max ionic steps)
   IBRION = 2            (Algorithm: 0-MD
   ISIF = 3            (Stress/relaxation: 2-Ions, 3-Shape/Ions/V, 4-Shape/Ions)
   EDIFFG = -1E-03        (Ionic convergence
   PSTRESS = 0
   NCORE = 16

 POTCAR:    PAW_PBE Si 05Jan2001
 POTCAR:    PAW_PBE C 08Apr2002
|           W    W    AA    RRRRR   N    N  II  N    N   GGGG   !!!           |
|           W    W   A  A   R    R  NN   N  II  NN   N  G    G  !!!           |
|           W    W  A    A  R    R  N N  N  II  N N  N  G       !!!           |
|           W WW W  AAAAAA  RRRRR   N  N N  II  N  N N  G  GGG   !            |
|           WW  WW  A    A  R   R   N   NN  II  N   NN  G    G                |
|           W    W  A    A  R    R  N    N  II  N    N   GGGG   !!!           |
|     For optimal performance we recommend to set                             |
|       NCORE = 2 up to number-of-cores-per-socket                            |
|     This setting can greatly improve the performance of VASP for DFT.       |
|     The default, NCORE=1 might be grossly inefficient on modern             |
|     multi-core architectures or massively parallel machines. Do your        |
|     Unfortunately you need to use the default for GW and RPA                |
|     calculations (for HF NCORE is supported but not extensively tested      |
|     yet).                                                                   |

 POTCAR:    PAW_PBE Si 05Jan2001
   VRHFIN =Si: s2p2

   TITEL  = PAW_PBE Si 05Jan2001
   POMASS =   28.085; ZVAL   =    4.000    mass and valenz
   ENMAX  =  245.345; ENMIN  =  184.009 eV

 POTCAR:    PAW_PBE C 08Apr2002
   VRHFIN =C: s2p2

   TITEL  = PAW_PBE C 08Apr2002
   POMASS =   12.011; ZVAL   =    4.000    mass and valenz
   ENMAX  =  400.000; ENMIN  =  300.000 eV

  PAW_PBE Si 05Jan2001                  :
  PAW_PBE C 08Apr2002                   :

 POSCAR: g-SiC
  positions in direct lattice
 exchange correlation table for  LEXCH =        8
   RHO(1)=    0.500       N(1)  =     2000
   RHO(2)=  100.500       N(2)  =     4000

 ion  position               nearest neighbor table
   1  0.333  0.000  0.500-   5 1.79   6 1.79   4 1.79   2 3.10   3 3.10   2 3.10   3 3.10   2 3.10
                             3 3.10
   2  0.000  0.667  0.500-   5 1.79   4 1.79   6 1.79   1 3.10   3 3.10   3 3.10   3 3.10   1 3.10
                             1 3.10
   3  0.667  0.333  0.500-   6 1.79   4 1.79   5 1.79   1 3.10   2 3.10   1 3.10   2 3.10   2 3.10
                             1 3.10
   4  0.667  0.000  0.500-   2 1.79   3 1.79   1 1.79
   5  1.000  0.333  0.500-   2 1.79   1 1.79   3 1.79
   6  0.333  0.667  0.500-   3 1.79   1 1.79   2 1.79

  LATTYP: Found a base centered orthorhombic cell.
 ALAT       =     5.3629214918
 B/A-ratio  =     1.7319904698
 C/A-ratio  =     4.3297296139

  Lattice vectors:

 A1 = (   2.6814607459,  -4.6442644571,   0.0000000000)
 A2 = (   2.6814607459,   4.6442644571,   0.0000000000)
 A3 = (   0.0000000000,   0.0000000000,  23.2200000000)

Analysis of symmetry for initial positions (statically):
 Subroutine PRICEL returns following result:

[...]

   3 primitive cells build up your supercell.

 Routine SETGRP: Setting up the symmetry group for a
 base centered orthorhombic supercell.

 Subroutine GETGRP returns: Found  4 space group operations
 (whereof  4 operations were pure point group operations)
 out of a pool of  8 trial point group operations.

The static configuration has the point symmetry C_2v.

Analysis of symmetry for dynamics (positions and initial velocities):
 Subroutine PRICEL returns following result:

  LATTYP: Found a base centered orthorhombic cell.
 ALAT       =     3.0961763048
 B/A-ratio  =     1.7321111474
 C/A-ratio  =     7.4995729295

  Lattice vectors:

 A1 = (  -2.6814607459,  -1.5480881524,   0.0000000000)
 A2 = (   2.6814607459,  -1.5480881524,   0.0000000000)
 A3 = (   0.0000000000,   0.0000000000,  23.2200000000)

   3 primitive cells build up your supercell.

 Routine SETGRP: Setting up the symmetry group for a
 base centered orthorhombic supercell.

 Subroutine GETGRP returns: Found  4 space group operations
 (whereof  4 operations were pure point group operations)
 out of a pool of  8 trial point group operations.

The dynamic configuration has the point symmetry C_2v.

 Subroutine INISYM returns: Found  4 space group operations
 (whereof  4 operations are pure point group operations),
 and found     3 'primitive' translations

                                     Primitive cell

  volume of cell :     192.7788

  direct lattice vectors                    reciprocal lattice vectors
    -2.681460746 -1.548088152  0.000000000    -0.186465530 -0.322979024  0.000000000
     2.681460746 -1.548088152  0.000000000     0.186465530 -0.322979024 -0.000000000
     0.000000000  0.000000000 23.220000000     0.000000000  0.000000000  0.043066322

  length of vectors
     3.096257202  3.096257202 23.220000000     0.372940805  0.372940805  0.043066322

  position of ions in fractional coordinates (direct lattice)
     0.666666282  0.333333718  0.500000000
     0.333333718  0.666666282  0.500000000

  ion indices of the primitive-cell ions
   primitive index   ion index
                 1           1
                 2           4

 KPOINTS: K-Spacing Value to Generate K-Mesh: 0.03

Automatic generation of k-mesh.
 Grid dimensions read from file:
 generate k-points for:    9    9    1

 Generating k-lattice:

  Cartesian coordinates                     Fractional coordinates (reciprocal lattice)
     0.020718392 -0.011962186 -0.000000000     0.111111111  0.000000000  0.000000000
     0.000000000  0.023924372 -0.000000000     0.000000000  0.111111111 -0.000000000
     0.000000000  0.000000000  0.043066322     0.000000000  0.000000000  1.000000000

  Length of vectors
     0.023923747  0.023924372  0.043066322

  Shift w.r.t. Gamma in fractional coordinates (k-lattice)
     0.000000000  0.000000000  0.000000000

 Subroutine IBZKPT returns following result:

 Found     25 irreducible k-points:

 Following reciprocal coordinates:
            Coordinates               Weight
  0.000000  0.000000  0.000000      1.000000
  0.111111 -0.000000  0.000000      4.000000
  0.222222 -0.000000  0.000000      4.000000
  0.333333  0.000000  0.000000      4.000000
  0.444444 -0.000000  0.000000      4.000000
  0.000000  0.111111  0.000000      2.000000
  0.222222  0.111111  0.000000      2.000000
  0.333333  0.111111  0.000000      4.000000
  0.444444  0.111111  0.000000      4.000000
 -0.444444  0.111111 -0.000000      4.000000
 -0.333333  0.111111 -0.000000      4.000000
 -0.222222  0.111111 -0.000000      4.000000
 -0.111111  0.111111 -0.000000      4.000000
  0.000000  0.222222  0.000000      2.000000
  0.444444  0.222222  0.000000      2.000000
 -0.444444  0.222222 -0.000000      4.000000
 -0.333333  0.222222 -0.000000      4.000000
 -0.222222  0.222222 -0.000000      4.000000
 -0.111111  0.222222  0.000000      4.000000
  0.000000  0.333333  0.000000      2.000000
 -0.333333  0.333333 -0.000000      2.000000
 -0.222222  0.333333  0.000000      4.000000
 -0.111111  0.333333  0.000000      4.000000
  0.000000  0.444444  0.000000      2.000000
 -0.111111  0.444444  0.000000      2.000000

 Following cartesian coordinates:
            Coordinates               Weight
  0.000000  0.000000  0.000000      1.000000
  0.020718 -0.011962  0.000000      4.000000
  0.041437 -0.023924  0.000000      4.000000
  0.062155 -0.035887  0.000000      4.000000
  0.082874 -0.047849  0.000000      4.000000
  0.000000  0.023924  0.000000      2.000000
  0.041437  0.000000  0.000000      2.000000
  0.062155 -0.011962  0.000000      4.000000
  0.082874 -0.023924  0.000000      4.000000
 -0.082874  0.071773 -0.000000      4.000000
 -0.062155  0.059811 -0.000000      4.000000
 -0.041437  0.047849 -0.000000      4.000000
 -0.020718  0.035887 -0.000000      4.000000
  0.000000  0.047849 -0.000000      2.000000
  0.082874 -0.000000  0.000000      2.000000
 -0.082874  0.095697 -0.000000      4.000000
 -0.062155  0.083735 -0.000000      4.000000
 -0.041437  0.071773 -0.000000      4.000000
 -0.020718  0.059811 -0.000000      4.000000
  0.000000  0.071773 -0.000000      2.000000
 -0.062155  0.107660 -0.000000      2.000000
 -0.041437  0.095697 -0.000000      4.000000
 -0.020718  0.083735 -0.000000      4.000000
  0.000000  0.095697 -0.000000      2.000000
 -0.020718  0.107660 -0.000000      2.000000

 SYSTEM =  unknown system
 POSCAR =  g-SiC

 Startparameter for this run:
   NWRITE =      2    write-flag & timer
   PREC   = a         normal or accurate (medium, high low for compatibility)
   ISTART =      0    job   : 0-new  1-cont  2-samecut
   ICHARG =      2    charge: 1-file 2-atom 10-const
   ISPIN  =      1    spin polarized calculation?
   LNONCOLLINEAR =      F non collinear calculations
   LSORBIT =      F    spin-orbit coupling
   INIWAV =      1    electr: 0-lowe 1-rand  2-diag
   LASPH  =      F    aspherical Exc in radial PAW
 Electronic Relaxation 1
   ENCUT  =  520.0 eV  38.22 Ry    6.18 a.u.   9.97  9.97 43.17*2*pi/ulx,y,z
   ENINI  =  520.0     initial cutoff
   ENAUG  =  644.9 eV  augmentation charge cutoff
   NELM   =    200;   NELMIN=  2; NELMDL= -5     # of ELM steps
   EDIFF  = 0.1E-07   stopping-criterion for ELM
   LREAL  =      F    real-space projection
   NLSPLINE    = F    spline interpolate recip. space projectors
   LCOMPAT=      F    compatible to vasp.4.4
   GGA_COMPAT  = T    GGA compatible to vasp.4.4-vasp.4.6
   LMAXPAW     = -100 max onsite density
   LMAXMIX     =    2 max onsite mixed and CHGCAR
   VOSKOWN=      0    Vosko Wilk Nusair interpolation
   ROPT   =    0.00000   0.00000
 Ionic relaxation
   EDIFFG = -.1E-02   stopping-criterion for IOM
   NSW    =    200    number of steps for IOM
   NBLOCK =      1;   KBLOCK =    200    inner block; outer block
   IBRION =      2    ionic relax: 0-MD 1-quasi-New 2-CG
   NFREE  =      1    steps in history (QN), initial steepest desc. (CG)
   ISIF   =      3    stress and relaxation
   IWAVPR =     11    prediction:  0-non 1-charg 2-wave 3-comb
   ISYM   =      2    0-nonsym 1-usesym 2-fastsym
   LCORR  =      T    Harris-Foulkes like correction to forces

   POTIM  = 0.5000    time-step for ionic-motion
   TEIN   =    0.0    initial temperature
   TEBEG  =    0.0;   TEEND  =   0.0 temperature during run
   SMASS  =  -3.00    Nose mass-parameter (am)
[...]
   IDIPOL =      0    1-x, 2-y, 3-z, 4-all directions
   EPSILON=  1.0000000 bulk dielectric constant

 Exchange correlation treatment:
   GGA     =    --    GGA type
   VOSKOWN =     0    Vosko Wilk Nusair interpolation
   LHFCALC =     F    Hartree Fock is set to
   LHFONE  =     F    Hartree Fock one center treatment
   AEXX    =    0.0000 exact exchange contribution

 Linear response parameters
   LEPSILON=     F    determine dielectric tensor
   LRPA    =     F    only Hartree local field effects (RPA)
   LNABLA  =     F    use nabla operator in PAW spheres
   LVEL    =     F    velocity operator in full k-point grid
   CSHIFT  =0.1000    complex shift for real part using Kramers Kronig
   OMEGAMAX=  -1.0    maximum frequency
   DEG_THRESHOLD= 0.2000000E-02 threshold for treating states as degnerate
   RTIME   =   -0.100 relaxation time in fs
  (WPLASMAI=    0.000 imaginary part of plasma frequency in eV, 0.658/RTIME)
   DFIELD  = 0.0000000 0.0000000 0.0000000 field for delta impulse in time

  Optional k-point grid parameters
   LKPOINTS_OPT  =     F    use optional k-point grid
   KPOINTS_OPT_MODE=     1    mode for optional k-point grid

 Orbital magnetization related:
   ORBITALMAG=     F  switch on orbital magnetization
   LCHIMAG   =     F  perturbation theory with respect to B field
   DQ        =  0.001000  dq finite difference perturbation B field
   LLRAUG    =     F  two centre corrections for induced B field

 conjugate gradient relaxation of ions
 charge density and potential will be updated during run
 non-spin polarized calculation
 Variant of blocked Davidson
 Davidson routine will perform the subspace rotation
 perform sub-space diagonalisation
    after iterative eigenvector-optimisation
 modified Broyden-mixing scheme, WC =      100.0
 initial mixing is a Kerker type mixing with AMIX =  0.4000 and BMIX =      1.0000
 Hartree-type preconditioning will be used
 using additional bands            4
 reciprocal scheme for non local part
 use partial core corrections
 calculate Harris-corrections to forces
   (improved forces if not selfconsistent)
 use gradient corrections
 use of overlap-Matrix (Vanderbilt PP)
 Gauss-broadening in eV      SIGMA  =   0.05

  energy-cutoff  :      520.00
  volume of cell :      578.34
      direct lattice vectors                 reciprocal lattice vectors
     5.362921492  0.000000000  0.000000000     0.186465530 -0.107659675 -0.000000000
     2.681460746  4.644264457  0.000000000     0.000000000  0.215319349 -0.000000000
     0.000000000  0.000000000 23.220000000     0.000000000  0.000000000  0.043066322

[...]

 k-points in units of 2pi/SCALE and weight: K-Spacing Value to Generate K-Mesh: 0.03
   0.00000000  0.00000000  0.00000000       0.012
   0.02071839 -0.01196219  0.00000000       0.049
   0.04143678 -0.02392437  0.00000000       0.049
   0.06215518 -0.03588656  0.00000000       0.049
   0.08287357 -0.04784874  0.00000000       0.049
   0.00000000  0.02392437  0.00000000       0.025
   0.04143678  0.00000000  0.00000000       0.025
   0.06215518 -0.01196219  0.00000000       0.049
   0.08287357 -0.02392437  0.00000000       0.049
  -0.08287357  0.07177312 -0.00000000       0.049
  -0.06215518  0.05981093 -0.00000000       0.049
  -0.04143678  0.04784874 -0.00000000       0.049
  -0.02071839  0.03588656 -0.00000000       0.049
   0.00000000  0.04784874 -0.00000000       0.025
   0.08287357 -0.00000000  0.00000000       0.025
  -0.08287357  0.09569749 -0.00000000       0.049
  -0.06215518  0.08373530 -0.00000000       0.049
  -0.04143678  0.07177312 -0.00000000       0.049
  -0.02071839  0.05981093 -0.00000000       0.049
   0.00000000  0.07177312 -0.00000000       0.025
  -0.06215518  0.10765967 -0.00000000       0.025
  -0.04143678  0.09569749 -0.00000000       0.049
  -0.02071839  0.08373530 -0.00000000       0.049
   0.00000000  0.09569749 -0.00000000       0.025
  -0.02071839  0.10765967 -0.00000000       0.025

 k-points in reciprocal lattice and weights: K-Spacing Value to Generate K-Mesh: 0.03
   0.00000000  0.00000000  0.00000000       0.012
   0.11111111 -0.00000000  0.00000000       0.049
   0.22222222 -0.00000000  0.00000000       0.049
   0.33333333  0.00000000  0.00000000       0.049
   0.44444444 -0.00000000  0.00000000       0.049
   0.00000000  0.11111111  0.00000000       0.025
   0.22222222  0.11111111  0.00000000       0.025
   0.33333333  0.11111111  0.00000000       0.049
   0.44444444  0.11111111  0.00000000       0.049
  -0.44444444  0.11111111 -0.00000000       0.049
  -0.33333333  0.11111111 -0.00000000       0.049
  -0.22222222  0.11111111 -0.00000000       0.049
  -0.11111111  0.11111111 -0.00000000       0.049
   0.00000000  0.22222222  0.00000000       0.025
   0.44444444  0.22222222  0.00000000       0.025
  -0.44444444  0.22222222 -0.00000000       0.049
  -0.33333333  0.22222222 -0.00000000       0.049
  -0.22222222  0.22222222 -0.00000000       0.049
  -0.11111111  0.22222222  0.00000000       0.049
   0.00000000  0.33333333  0.00000000       0.025
  -0.33333333  0.33333333 -0.00000000       0.025
  -0.22222222  0.33333333  0.00000000       0.049
  -0.11111111  0.33333333  0.00000000       0.049
   0.00000000  0.44444444  0.00000000       0.025
  -0.11111111  0.44444444  0.00000000       0.025

 position of ions in fractional coordinates (direct lattice)
   0.33333372  0.00000000  0.50000000
   0.00000038  0.66666667  0.50000000
   0.66666705  0.33333333  0.50000000
   0.66666628  0.00000000  0.50000000
   0.99999962  0.33333333  0.50000000
   0.33333295  0.66666667  0.50000000

 position of ions in cartesian coordinates  (Angst):
   1.78764256  0.00000000 11.61000000
   1.78764256  3.09617630 11.61000000
   4.46910331  1.54808815 11.61000000
   3.57527893  0.00000000 11.61000000
   6.25673968  1.54808815 11.61000000
   3.57527893  3.09617630 11.61000000

 k-point   1 :   0.0000 0.0000 0.0000  plane waves:   15543
 k-point   2 :   0.1111-0.0000 0.0000  plane waves:   15509
 k-point   3 :   0.2222-0.0000 0.0000  plane waves:   15519
 k-point   4 :   0.3333 0.0000 0.0000  plane waves:   15563
 k-point   5 :   0.4444-0.0000 0.0000  plane waves:   15578
 k-point   6 :   0.0000 0.1111 0.0000  plane waves:   15509
 k-point   7 :   0.2222 0.1111 0.0000  plane waves:   15564
 k-point   8 :   0.3333 0.1111 0.0000  plane waves:   15581
 k-point   9 :   0.4444 0.1111 0.0000  plane waves:   15594
 k-point  10 :  -0.4444 0.1111-0.0000  plane waves:   15578
 k-point  11 :  -0.3333 0.1111-0.0000  plane waves:   15594
 k-point  12 :  -0.2222 0.1111-0.0000  plane waves:   15583
 k-point  13 :  -0.1111 0.1111-0.0000  plane waves:   15564
 k-point  14 :   0.0000 0.2222 0.0000  plane waves:   15519
 k-point  15 :   0.4444 0.2222 0.0000  plane waves:   15608
 k-point  16 :  -0.4444 0.2222-0.0000  plane waves:   15610
 k-point  17 :  -0.3333 0.2222-0.0000  plane waves:   15608
 k-point  18 :  -0.2222 0.2222-0.0000  plane waves:   15608
 k-point  19 :  -0.1111 0.2222 0.0000  plane waves:   15581
 k-point  20 :   0.0000 0.3333 0.0000  plane waves:   15563
 k-point  21 :  -0.3333 0.3333-0.0000  plane waves:   15630
 k-point  22 :  -0.2222 0.3333 0.0000  plane waves:   15610
 k-point  23 :  -0.1111 0.3333 0.0000  plane waves:   15594
 k-point  24 :   0.0000 0.4444 0.0000  plane waves:   15578
 k-point  25 :  -0.1111 0.4444 0.0000  plane waves:   15578

 maximum and minimum number of plane-waves per node :       995      951

 maximum number of plane-waves:     15630
 maximum index in each direction:
   IXMAX=   10   IYMAX=    9   IZMAX=   43
   IXMIN=  -10   IYMIN=  -10   IZMIN=  -43

 parallel 3D FFT for wavefunctions:
    minimum data exchange during FFTs selected (reduces bandwidth)
 parallel 3D FFT for charge:
    minimum data exchange during FFTs selected (reduces bandwidth)

 Broyden mixing: mesh for mixing (old mesh)
   NGX = 19   NGY = 19   NGZ = 87
  (NGX  = 80   NGY  = 80   NGZ  =360)
  gives a total of  31407 points

 initial charge density was supplied:
 charge density of overlapping atoms calculated
 number of electron      24.0000000 magnetization
 keeping initial charge density in first step

 Maximum index for augmentation-charges          794 (set IRDMAX)

 First call to EWALD:  gamma=   0.213
 Maximum number of real-space cells 5x 5x 1
 Maximum number of reciprocal cells 2x 2x 7

--------------------------------------- Iteration      1(   1)  ---------------------------------------

 eigenvalue-minimisations  :   864
 total energy-change (2. order) : 0.1808879E+03  (-0.7464728E+03)
 number of electron      24.0000000 magnetization
 augmentation part       24.0000000 magnetization

 Free energy of the ion-electron system (eV)
  alpha Z        PSCENC =         3.60443664
  Ewald energy   TEWEN  =      2763.88439157
  -Hartree energ DENC   =     -3308.59640888
  -exchange      EXHF   =         0.00000000
  -V(xc)+E(xc)   XCENC  =        10.23849615
  PAW double counting   =       589.93753798     -538.86590994
  entropy T*S    EENTRO =        -0.00361905
  eigenvalues    EBANDS =       -89.95673641
  atomic energy  EATOM  =       750.64573404
  Solvation  Ediel_sol  =         0.00000000
  free energy    TOTEN  =       180.88792212 eV

  energy without entropy =      180.89154117  energy(sigma->0) =      180.88973165

[...]

 eigenvalue-minimisations  :  1272
 total energy-change (2. order) :-0.1894769E+03  (-0.1845329E+03)
 number of electron      24.0000000 magnetization
 augmentation part       24.0000000 magnetization

[...]

 Broyden mixing:
  rms(total) = 0.16822E+01    rms(broyden)= 0.16821E+01
  rms(prec ) = 0.18067E+01
  weight for this iteration     100.00

[...]

 eigenvalues of (default mixing * dielectric matrix)
  average eigenvalue GAMMA=   1.1551
  1.1551

[...]

 eigenvalue-minimisations  :  1096
 total energy-change (2. order) : 0.5530483E-02  (-0.8763168E-03)
 number of electron      23.9999999 magnetization
 augmentation part       -0.3954847 magnetization

[...]

 Broyden mixing:
  rms(total) = 0.32712E-05    rms(broyden)= 0.32710E-05
  rms(prec ) = 0.33516E-05
  weight for this iteration     100.00

 eigenvalues of (default mixing * dielectric matrix)
  average eigenvalue GAMMA=   2.5182
  9.3300  6.2282  4.5068  3.4854  2.8747  2.7791  2.4679  2.4679  2.1700  1.0932
  1.0932  1.0045  1.0045  1.0136  0.9630  0.9210  0.9626  0.9626

[...]

--------------------------------------- Iteration      1(  24)  ---------------------------------------

 eigenvalue-minimisations  :   760
 total energy-change (2. order) :-0.8021743E-09  (-0.1055555E-10)
 number of electron      23.9999999 magnetization
 augmentation part       -0.3960002 magnetization

 Free energy of the ion-electron system (eV)
  alpha Z        PSCENC =         3.60443664
  Ewald energy   TEWEN  =      2763.88439157
  -Hartree energ DENC   =     -3403.87112238
  -exchange      EXHF   =         0.00000000
  -V(xc)+E(xc)   XCENC  =        14.26571879
  PAW double counting   =      3060.43381813    -3010.02289742
  entropy T*S    EENTRO =        -0.00000000
  eigenvalues    EBANDS =      -221.10230084
  atomic energy  EATOM  =       750.64573404
  Solvation  Ediel_sol  =         0.00000000
  free energy    TOTEN  =       -42.16222147 eV

  energy without entropy =      -42.16222147  energy(sigma->0) =      -42.16222147

 average (electrostatic) potential at core
  the test charge radii are     0.9892  0.6991
  (the norm of the test charge is              1.0000)
       1 -92.3325       2 -92.3325       3 -92.3325       4 -56.7290       5 -56.7290
       6 -56.7290

 E-fermi :  -3.3990     XC(G=0):  -1.8707     alpha+bet : -1.7640

 Fermi energy:        -3.3989526634

 k-point     1 :       0.0000    0.0000    0.0000
  band No.  band energies     occupation
      1     -17.2898      2.00000
      2     -13.7531      2.00000
      3     -13.7531      2.00000
      4     -10.8665      2.00000
      5     -10.8665      2.00000
      6      -9.2568      2.00000
      7      -9.2568      2.00000
      8      -7.3715      2.00000
      9      -4.9388      2.00000
     10      -4.9386      2.00000
     11      -3.6101      2.00000
     12      -3.6101      2.00000
     13      -1.0547      0.00000
     14      -1.0547      0.00000
     15      -0.5438      0.00000
     16       1.1049      0.00000

[...]

 k-point    25 :      -0.1111    0.4444    0.0000
  band No.  band energies     occupation
      1     -15.9225      2.00000
      2     -15.9225      2.00000
      3     -14.5578      2.00000
      4     -11.1929      2.00000
      5      -8.6704      2.00000
      6      -8.6704      2.00000
      7      -6.4870      2.00000
      8      -6.4870      2.00000
      9      -6.4239      2.00000
     10      -5.9373      2.00000
     11      -5.9373      2.00000
     12      -4.5241      2.00000
     13      -0.7788      0.00000
     14       0.2746      0.00000
     15       1.0581      0.00000
     16       1.0581      0.00000

 soft charge-density along one line, spin component           1
         0         1         2         3         4         5         6         7         8         9
 total charge-density along one line

------------------------ aborting loop because EDIFF is reached ----------------------------------------

  FORCE on cell =-STRESS in cart. coord.  units (eV):
  Direction    XX          YY          ZZ          XY          YZ          ZX
  Alpha Z     3.60444     3.60444     3.60444
  Ewald    3406.31333  3406.32108 -4048.75047    -0.00000    -0.00000     0.00000
  Hartree  3347.00528  3347.00805 -3290.14252     0.00000    -0.00000    -0.00000
  E(xc)     -83.41005   -83.41017   -84.05481     0.00000    -0.00000     0.00000
  Local   -7032.21930 -7032.22868  7050.73936     0.00001    -0.00000    -0.00000
  n-local   116.37212   116.37256    83.46918     0.27963    -0.00000    -0.00000
  augment   -18.51030   -18.51038   -16.32199    -0.00002    -0.00000     0.00000
  Kinetic   260.83999   260.84693   301.43836    -2.15321     0.00000    -0.00000
  Fock        0.00000     0.00000     0.00000     0.00000     0.00000     0.00000
  Total      -0.00450     0.00383    -0.01847     0.00000    -0.00000    -0.00000
  in kB      -0.01247     0.01061    -0.05118     0.00000    -0.00000    -0.00000

 VOLUME and BASIS-vectors are now :
  energy-cutoff  :      520.00
  volume of cell :      578.34
      direct lattice vectors                 reciprocal lattice vectors
     5.362921492  0.000000000  0.000000000     0.186465530 -0.107659675 -0.000000000
     2.681460746  4.644264457  0.000000000     0.000000000  0.215319349 -0.000000000
     0.000000000  0.000000000 23.220000000     0.000000000  0.000000000  0.043066322

  length of vectors
     5.362921492  5.362781375 23.220000000     0.215313723  0.215319349  0.043066322

 FORCES acting on ions
    electron-ion (+dipol)            ewald-force                    non-local-force                 convergence-correction
   -.640E-02 -.169E-05 -.108E-07   0.448E-02 0.000E+00 0.100E-18   0.239E-02 -.457E-17 -.318E-24   -.711E-08 -.342E-10 -.112E-13
   -.640E-02 -.293E-06 0.106E-07   0.448E-02 0.145E-10 -.156E-19   0.239E-02 0.375E-17 -.362E-24   -.711E-08 -.341E-10 -.112E-13
   -.640E-02 -.326E-05 -.757E-10   0.448E-02 -.145E-10 -.924E-19   0.239E-02 0.410E-17 -.470E-24   -.711E-08 -.343E-10 -.112E-13
   0.402E-02 -.138E-06 -.159E-07   -.448E-02 -.115E-14 -.145E-18   -.301E-05 -.133E-17 0.724E-25   0.136E-07 0.773E-10 -.625E-16
   0.401E-02 -.781E-05 0.158E-07   -.448E-02 -.145E-10 0.107E-18   -.301E-05 0.430E-17 0.146E-24   0.136E-07 0.778E-10 0.735E-16
   0.401E-02 0.736E-05 -.289E-10   -.448E-02 0.145E-10 0.490E-19   -.301E-05 0.604E-17 0.129E-25   0.136E-07 0.769E-10 0.305E-15
   -.715E-02 -.583E-05 -.310E-09   -.253E-14 -.171E-15 0.372E-20   0.715E-02 0.123E-16 -.918E-24   0.194E-07 0.129E-09 -.334E-13

 POSITION                                       TOTAL-FORCE (eV/Angst)
      1.78764      0.00000     11.61000         0.000468     -0.000000     -0.000000
      1.78764      3.09618     11.61000         0.000468     -0.000000     -0.000000
      4.46910      1.54809     11.61000         0.000468     -0.000000     -0.000000
      3.57528      0.00000     11.61000        -0.000468      0.000000      0.000000
      6.25674      1.54809     11.61000        -0.000468      0.000000      0.000000
      3.57528      3.09618     11.61000        -0.000468      0.000000      0.000000
    total drift:                                0.000003     -0.000006     -0.000000

  FREE ENERGIE OF THE ION-ELECTRON SYSTEM (eV)
  free  energy   TOTEN  =       -42.16222147 eV

  energy  without entropy=      -42.16222147  energy(sigma->0) =      -42.16222147

 reached required accuracy - stopping structural energy minimisation
 writing wavefunctions