 vasp.6.3.0 20Jan22 (build Jan 26 2022 20:51:09) complex

 executed on             LinuxIFC date 2023.07.15  21:36:40

 INCAR:
   ISTART = 1            (Read existing wavefunction
   ICHARG = 1
   ISPIN = 1            (Non-Spin polarised DFT)
   LREAL = .FALSE.       (Projection operators: automatic)
   ENCUT = 520        (Cut-off energy for plane wave basis set, in eV)
   PREC = A       (Precision level)
   LWAVE = .FALSE.        (Write WAVECAR or not)
   LCHARG = .FALSE.        (Write CHGCAR or not)
   ADDGRID = F        (Increase grid
   ISMEAR = 0            (Gaussian smearing
   SIGMA = 0.05         (Smearing value in eV
   NELM = 200
   EDIFF = 1E-6        (SCF energy convergence
   NSW = 0          (Max ionic steps)
   IBRION = -1            (Algorithm: 0-MD
   ISIF = 3           (Stress/relaxation: 2-Ions, 3-Shape/Ions/V, 4-Shape/Ions)
   EDIFFG = -1E-05        (Ionic convergence
   NCORE = 15
   LHFCALC = .TRUE.
   HFSCREEN = 0.2
   ALGO = Damped
   TIME = 0.4

 POTCAR:    PAW_PBE C 08Apr2002
|           W    W    AA    RRRRR   N    N  II  N    N   GGGG   !!!           |
|           W    W   A  A   R    R  NN   N  II  NN   N  G    G  !!!           |
|           W    W  A    A  R    R  N N  N  II  N N  N  G       !!!           |
|           W WW W  AAAAAA  RRRRR   N  N N  II  N  N N  G  GGG   !            |
|           WW  WW  A    A  R   R   N   NN  II  N   NN  G    G                |
|           W    W  A    A  R    R  N    N  II  N    N   GGGG   !!!           |
|     For optimal performance we recommend to set                             |
|       NCORE = 2 up to number-of-cores-per-socket                            |
|     This setting can greatly improve the performance of VASP for DFT.       |
|     The default, NCORE=1 might be grossly inefficient on modern             |
|     multi-core architectures or massively parallel machines. Do your        |
|     Unfortunately you need to use the default for GW and RPA                |
|     calculations (for HF NCORE is supported but not extensively tested      |
|     yet).                                                                   |

 POTCAR:    PAW_PBE C 08Apr2002
   VRHFIN =C: s2p2

   TITEL  = PAW_PBE C 08Apr2002
   POMASS =   12.011; ZVAL   =    4.000    mass and valenz
   ENMAX  =  400.000; ENMIN  =  300.000 eV

  PAW_PBE C 08Apr2002                   :

 POSCAR: C4
  positions in direct lattice
  velocities in cartesian coordinates
 exchange correlation table for  LEXCH =        8
   RHO(1)=    0.500       N(1)  =     2000
   RHO(2)=  100.500       N(2)  =     4000

 ion  position               nearest neighbor table
   1  0.000  0.000  0.500-   2 1.42   2 1.42   2 1.42
   2  0.333  0.333  0.500-   1 1.42   1 1.42   1 1.42

  LATTYP: Found a hexagonal cell.
 ALAT       =     2.4681332416
 C/A-ratio  =     4.8619741422

  Lattice vectors:

 A1 = (  -1.2340666208,  -2.1374660871,   0.0000000000)
 A2 = (   2.4681332416,   0.0000000000,   0.0000000000)
 A3 = (   0.0000000000,   0.0000000000,  12.0000000000)

Analysis of symmetry for initial positions (statically):
 Subroutine PRICEL returns:
 Original cell was already a primitive cell.

 Routine SETGRP: Setting up the symmetry group for a
 hexagonal supercell.

 Subroutine GETGRP returns: Found 24 space group operations
 (whereof 12 operations were pure point group operations)
 out of a pool of 24 trial point group operations.

The static configuration has the point symmetry D_3h.
 The point group associated with its full space group is D_6h.

Analysis of symmetry for dynamics (positions and initial velocities):
 Subroutine PRICEL returns:
 Original cell was already a primitive cell.

 Routine SETGRP: Setting up the symmetry group for a
 hexagonal supercell.

 Subroutine GETGRP returns: Found 24 space group operations
 (whereof 12 operations were pure point group operations)
 out of a pool of 24 trial point group operations.

The dynamic configuration has the point symmetry D_3h.
 The point group associated with its full space group is D_6h.

 Subroutine INISYM returns: Found 24 space group operations
 (whereof 12 operations are pure point group operations),
 and found     1 'primitive' translations

                                     Primitive cell

  volume of cell :      63.3066

  direct lattice vectors                    reciprocal lattice vectors
     2.468133242  0.000000000  0.000000000     0.405164512 -0.233921840  0.000000000
     1.234066621  2.137466087  0.000000000     0.000000000  0.467843680  0.000000000
     0.000000000  0.000000000 12.000000000     0.000000000  0.000000000  0.083333333

  length of vectors
     2.468133242  2.468133242 12.000000000     0.467843680  0.467843680  0.083333333

  position of ions in fractional coordinates (direct lattice)
     0.000000000  0.000000000  0.500000000
     0.333333343  0.333333343  0.500000000

  ion indices of the primitive-cell ions
   primitive index   ion index
                 1           1
                 2           2

 KPOINTS: 0.030  18  18   1   37  0.030  132    3

Read explicit list of k-points.

 Found    169 k-points:

 Following reciprocal coordinates:
            Coordinates               Weight
  0.000000  0.000000  0.000000      0.003086
  0.055556  0.000000  0.000000      0.018519
  0.111111  0.000000  0.000000      0.018519
  0.166667  0.000000  0.000000      0.018519
  0.222222  0.000000  0.000000      0.018519
  0.277778  0.000000  0.000000      0.018519
  0.333333  0.000000  0.000000      0.018519
  0.388889  0.000000  0.000000      0.018519
  0.444444  0.000000  0.000000      0.018519
  0.500000  0.000000  0.000000      0.009259
  0.111111  0.055556  0.000000      0.018519
  0.166667  0.055556  0.000000      0.037037
  0.222222  0.055556  0.000000      0.037037
  0.277778  0.055556  0.000000      0.037037
  0.333333  0.055556  0.000000      0.037037
  0.388889  0.055556  0.000000      0.037037
  0.444444  0.055556  0.000000      0.037037
  0.500000  0.055556  0.000000      0.037037
  0.222222  0.111111  0.000000      0.018519
  0.277778  0.111111  0.000000      0.037037
  0.333333  0.111111  0.000000      0.037037
  0.388889  0.111111  0.000000      0.037037
  0.444444  0.111111  0.000000      0.037037
  0.500000  0.111111  0.000000      0.037037
 -0.444444  0.111111  0.000000      0.018519
  0.333333  0.166667  0.000000      0.018519
  0.388889  0.166667  0.000000      0.037037
  0.444444  0.166667  0.000000      0.037037
  0.500000  0.166667  0.000000      0.037037
 -0.444444  0.166667  0.000000      0.037037
  0.444444  0.222222  0.000000      0.018519
  0.500000  0.222222  0.000000      0.037037
 -0.444444  0.222222  0.000000      0.037037
 -0.388889  0.222222  0.000000      0.018519
 -0.444444  0.277778  0.000000      0.018519
 -0.388889  0.277778  0.000000      0.037037
 -0.333333  0.333333  0.000000      0.006173
  0.000000  0.000000  0.000000      0.000000
  0.010638  0.010638  0.000000      0.000000
  0.021277  0.021277  0.000000      0.000000
  0.031915  0.031915  0.000000      0.000000
  0.042553  0.042553  0.000000      0.000000
  0.053191  0.053191  0.000000      0.000000
  0.063830  0.063830  0.000000      0.000000
  0.074468  0.074468  0.000000      0.000000
  0.085106  0.085106  0.000000      0.000000
  0.095745  0.095745  0.000000      0.000000
  0.106383  0.106383  0.000000      0.000000
  0.117021  0.117021  0.000000      0.000000
  0.127660  0.127660  0.000000      0.000000
  0.138298  0.138298  0.000000      0.000000
  0.148936  0.148936  0.000000      0.000000
  0.159574  0.159574  0.000000      0.000000
  0.170213  0.170213  0.000000      0.000000
  0.180851  0.180851  0.000000      0.000000
  0.191489  0.191489  0.000000      0.000000
  0.202128  0.202128  0.000000      0.000000
  0.212766  0.212766  0.000000      0.000000
  0.223404  0.223404  0.000000      0.000000
  0.234043  0.234043  0.000000      0.000000
[...]
  0.084848  0.169697  0.000000      0.000000
  0.078788  0.157576  0.000000      0.000000
  0.072727  0.145455  0.000000      0.000000
  0.066667  0.133333  0.000000      0.000000
  0.060606  0.121212  0.000000      0.000000
  0.054545  0.109091  0.000000      0.000000
  0.048485  0.096970  0.000000      0.000000
  0.042424  0.084848  0.000000      0.000000
  0.036364  0.072727  0.000000      0.000000
  0.030303  0.060606  0.000000      0.000000
  0.024242  0.048485  0.000000      0.000000
  0.018182  0.036364  0.000000      0.000000
  0.012121  0.024242  0.000000      0.000000
  0.006061  0.012121  0.000000      0.000000
  0.000000  0.000000  0.000000      0.000000

 Following cartesian coordinates:
            Coordinates               Weight
  0.000000  0.000000  0.000000      0.003086
  0.022509 -0.012996  0.000000      0.018519
  0.045018 -0.025991  0.000000      0.018519
  0.067527 -0.038987  0.000000      0.018519
  0.090037 -0.051983  0.000000      0.018519
  0.112546 -0.064978  0.000000      0.018519
  0.135055 -0.077974  0.000000      0.018519
  0.157564 -0.090970  0.000000      0.018519
  0.180073 -0.103965  0.000000      0.018519
  0.202582 -0.116961  0.000000      0.009259
  0.045018  0.000000  0.000000      0.018519
  0.067527 -0.012996  0.000000      0.037037
  0.090037 -0.025991  0.000000      0.037037
  0.112546 -0.038987  0.000000      0.037037
  0.135055 -0.051983  0.000000      0.037037
  0.157564 -0.064978  0.000000      0.037037
  0.180073 -0.077974  0.000000      0.037037
  0.202582 -0.090970  0.000000      0.037037
  0.090037  0.000000  0.000000      0.018519
  0.112546 -0.012996  0.000000      0.037037
  0.135055 -0.025991  0.000000      0.037037
  0.157564 -0.038987  0.000000      0.037037
  0.180073 -0.051983  0.000000      0.037037
  0.202582 -0.064978  0.000000      0.037037
 -0.180073  0.155948  0.000000      0.018519
  0.135055  0.000000  0.000000      0.018519
  0.157564 -0.012996  0.000000      0.037037
  0.180073 -0.025991  0.000000      0.037037
  0.202582 -0.038987  0.000000      0.037037
 -0.180073  0.181939  0.000000      0.037037
  0.180073  0.000000  0.000000      0.018519
  0.202582 -0.012996  0.000000      0.037037
 -0.180073  0.207931  0.000000      0.037037
 -0.157564  0.194935  0.000000      0.018519
 -0.180073  0.233922  0.000000      0.018519
 -0.157564  0.220926  0.000000      0.037037
 -0.135055  0.233922  0.000000      0.006173
  0.000000  0.000000  0.000000      0.000000
  0.004310  0.002489  0.000000      0.000000
  0.008621  0.004977  0.000000      0.000000
  0.012931  0.007466  0.000000      0.000000
  0.017241  0.009954  0.000000      0.000000
  0.021551  0.012443  0.000000      0.000000
  0.025862  0.014931  0.000000      0.000000
  0.030172  0.017420  0.000000      0.000000
  0.034482  0.019908  0.000000      0.000000
  0.038792  0.022397  0.000000      0.000000
  0.043103  0.024885  0.000000      0.000000
  0.047413  0.027374  0.000000      0.000000
  0.051723  0.029862  0.000000      0.000000
  0.056033  0.032351  0.000000      0.000000
  0.060344  0.034839  0.000000      0.000000
  0.064654  0.037328  0.000000      0.000000
  0.068964  0.039816  0.000000      0.000000
  0.073274  0.042305  0.000000      0.000000
  0.077585  0.044794  0.000000      0.000000
[...]
   0.02455542  0.04253124  0.00000000       0.000
   0.02209988  0.03827812  0.00000000       0.000
   0.01964434  0.03402499  0.00000000       0.000
   0.01718880  0.02977187  0.00000000       0.000
   0.01473325  0.02551875  0.00000000       0.000
   0.01227771  0.02126562  0.00000000       0.000
   0.00982217  0.01701250  0.00000000       0.000
   0.00736663  0.01275937  0.00000000       0.000
   0.00491108  0.00850625  0.00000000       0.000
   0.00245554  0.00425312  0.00000000       0.000
   0.00000000  0.00000000  0.00000000       0.000

 k-points in reciprocal lattice and weights: 0.030  18  18   1   37  0.030  132    3
   0.00000000  0.00000000  0.00000000       0.003
   0.05555556  0.00000000  0.00000000       0.019
   0.11111111  0.00000000  0.00000000       0.019
   0.16666667  0.00000000  0.00000000       0.019
   0.22222222  0.00000000  0.00000000       0.019
   0.27777778  0.00000000  0.00000000       0.019
   0.33333333  0.00000000  0.00000000       0.019
   0.38888889  0.00000000  0.00000000       0.019
   0.44444444  0.00000000  0.00000000       0.019
   0.50000000  0.00000000  0.00000000       0.009
   0.11111111  0.05555556  0.00000000       0.019
   0.16666667  0.05555556  0.00000000       0.037
   0.22222222  0.05555556  0.00000000       0.037
   0.27777778  0.05555556  0.00000000       0.037
   0.33333333  0.05555556  0.00000000       0.037
   0.38888889  0.05555556  0.00000000       0.037
   0.44444444  0.05555556  0.00000000       0.037
   0.50000000  0.05555556  0.00000000       0.037
   0.22222222  0.11111111  0.00000000       0.019
   0.27777778  0.11111111  0.00000000       0.037
   0.33333333  0.11111111  0.00000000       0.037
   0.38888889  0.11111111  0.00000000       0.037
   0.44444444  0.11111111  0.00000000       0.037
   0.50000000  0.11111111  0.00000000       0.037
  -0.44444444  0.11111111  0.00000000       0.019
   0.33333333  0.16666667  0.00000000       0.019
   0.38888889  0.16666667  0.00000000       0.037
   0.44444444  0.16666667  0.00000000       0.037
   0.50000000  0.16666667  0.00000000       0.037
  -0.44444444  0.16666667  0.00000000       0.037
   0.44444444  0.22222222  0.00000000       0.019
   0.50000000  0.22222222  0.00000000       0.037
  -0.44444444  0.22222222  0.00000000       0.037
  -0.38888889  0.22222222  0.00000000       0.019
  -0.44444444  0.27777778  0.00000000       0.019
  -0.38888889  0.27777778  0.00000000       0.037
  -0.33333333  0.33333333  0.00000000       0.006
   0.00000000  0.00000000  0.00000000       0.000
   0.01063830  0.01063830  0.00000000       0.000
   0.02127660  0.02127660  0.00000000       0.000
   0.03191489  0.03191489  0.00000000       0.000
   0.04255319  0.04255319  0.00000000       0.000
   0.05319149  0.05319149  0.00000000       0.000
   0.06382979  0.06382979  0.00000000       0.000
   0.07446809  0.07446809  0.00000000       0.000
   0.08510638  0.08510638  0.00000000       0.000
   0.09574468  0.09574468  0.00000000       0.000
   0.10638298  0.10638298  0.00000000       0.000
   0.11702128  0.11702128  0.00000000       0.000
   0.12765957  0.12765957  0.00000000       0.000
   0.13829787  0.13829787  0.00000000       0.000
   0.14893617  0.14893617  0.00000000       0.000
   0.15957447  0.15957447  0.00000000       0.000
   0.17021277  0.17021277  0.00000000       0.000
   0.18085106  0.18085106  0.00000000       0.000
   0.19148936  0.19148936  0.00000000       0.000
   0.20212766  0.20212766  0.00000000       0.000
   0.21276596  0.21276596  0.00000000       0.000
   0.22340426  0.22340426  0.00000000       0.000
   0.23404255  0.23404255  0.00000000       0.000
[...]
   0.08484848  0.16969697  0.00000000       0.000
   0.07878788  0.15757576  0.00000000       0.000
   0.07272727  0.14545455  0.00000000       0.000
   0.06666667  0.13333333  0.00000000       0.000
   0.06060606  0.12121212  0.00000000       0.000
   0.05454545  0.10909091  0.00000000       0.000
   0.04848485  0.09696970  0.00000000       0.000
   0.04242424  0.08484848  0.00000000       0.000
   0.03636364  0.07272727  0.00000000       0.000
   0.03030303  0.06060606  0.00000000       0.000
   0.02424242  0.04848485  0.00000000       0.000
   0.01818182  0.03636364  0.00000000       0.000
   0.01212121  0.02424242  0.00000000       0.000
   0.00606061  0.01212121  0.00000000       0.000
   0.00000000  0.00000000  0.00000000       0.000

 position of ions in fractional coordinates (direct lattice)
   0.00000000  0.00000000  0.50000000
   0.33333334  0.33333334  0.50000000

 position of ions in cartesian coordinates  (Angst):
   0.00000000  0.00000000  6.00000000
   1.23406666  0.71248872  6.00000000

 k-point   1 :   0.0000 0.0000 0.0000  plane waves:    1707
 k-point   2 :   0.0556 0.0000 0.0000  plane waves:    1710
 k-point   3 :   0.1111 0.0000 0.0000  plane waves:    1720
 k-point   4 :   0.1667 0.0000 0.0000  plane waves:    1722
 k-point   5 :   0.2222 0.0000 0.0000  plane waves:    1724
 k-point   6 :   0.2778 0.0000 0.0000  plane waves:    1728
 k-point   7 :   0.3333 0.0000 0.0000  plane waves:    1710
 k-point   8 :   0.3889 0.0000 0.0000  plane waves:    1694
 k-point   9 :   0.4444 0.0000 0.0000  plane waves:    1698
 k-point  10 :   0.5000 0.0000 0.0000  plane waves:    1692
 k-point  11 :   0.1111 0.0556 0.0000  plane waves:    1723
 k-point  12 :   0.1667 0.0556 0.0000  plane waves:    1717
 k-point  13 :   0.2222 0.0556 0.0000  plane waves:    1728
 k-point  14 :   0.2778 0.0556 0.0000  plane waves:    1722
 k-point  15 :   0.3333 0.0556 0.0000  plane waves:    1722
 k-point  16 :   0.3889 0.0556 0.0000  plane waves:    1698
 k-point  17 :   0.4444 0.0556 0.0000  plane waves:    1691
 k-point  18 :   0.5000 0.0556 0.0000  plane waves:    1704
 k-point  19 :   0.2222 0.1111 0.0000  plane waves:    1707
 k-point  20 :   0.2778 0.1111 0.0000  plane waves:    1717
 k-point  21 :   0.3333 0.1111 0.0000  plane waves:    1718
 k-point  22 :   0.3889 0.1111 0.0000  plane waves:    1712
 k-point  23 :   0.4444 0.1111 0.0000  plane waves:    1702
 k-point  24 :   0.5000 0.1111 0.0000  plane waves:    1697
 k-point  25 :  -0.4444 0.1111 0.0000  plane waves:    1696
 k-point  26 :   0.3333 0.1667 0.0000  plane waves:    1727
 k-point  27 :   0.3889 0.1667 0.0000  plane waves:    1709
 k-point  28 :   0.4444 0.1667 0.0000  plane waves:    1694
 k-point  29 :   0.5000 0.1667 0.0000  plane waves:    1695
 k-point  30 :  -0.4444 0.1667 0.0000  plane waves:    1691
 k-point  31 :   0.4444 0.2222 0.0000  plane waves:    1689
 k-point  32 :   0.5000 0.2222 0.0000  plane waves:    1693
 k-point  33 :  -0.4444 0.2222 0.0000  plane waves:    1685
 k-point  34 :  -0.3889 0.2222 0.0000  plane waves:    1688
 k-point  35 :  -0.4444 0.2778 0.0000  plane waves:    1683
 k-point  36 :  -0.3889 0.2778 0.0000  plane waves:    1684
 k-point  37 :  -0.3333 0.3333 0.0000  plane waves:    1698
 k-point  38 :   0.0000 0.0000 0.0000  plane waves:    1707
 k-point  39 :   0.0106 0.0106 0.0000  plane waves:    1711
 k-point  40 :   0.0213 0.0213 0.0000  plane waves:    1711
 k-point  41 :   0.0319 0.0319 0.0000  plane waves:    1714
 k-point  42 :   0.0426 0.0426 0.0000  plane waves:    1708
 k-point  43 :   0.0532 0.0532 0.0000  plane waves:    1706
 k-point  44 :   0.0638 0.0638 0.0000  plane waves:    1718
 k-point  45 :   0.0745 0.0745 0.0000  plane waves:    1718
 k-point  46 :   0.0851 0.0851 0.0000  plane waves:    1728
 k-point  47 :   0.0957 0.0957 0.0000  plane waves:    1728
 k-point  48 :   0.1064 0.1064 0.0000  plane waves:    1728
 k-point  49 :   0.1170 0.1170 0.0000  plane waves:    1720
 k-point  50 :   0.1277 0.1277 0.0000  plane waves:    1730
 k-point  51 :   0.1383 0.1383 0.0000  plane waves:    1730
 k-point  52 :   0.1489 0.1489 0.0000  plane waves:    1726
 k-point  53 :   0.1596 0.1596 0.0000  plane waves:    1726
 k-point  54 :   0.1702 0.1702 0.0000  plane waves:    1722
 k-point  55 :   0.1809 0.1809 0.0000  plane waves:    1720
 k-point  56 :   0.1915 0.1915 0.0000  plane waves:    1720
 k-point  57 :   0.2021 0.2021 0.0000  plane waves:    1716
 k-point  58 :   0.2128 0.2128 0.0000  plane waves:    1720
 k-point  59 :   0.2234 0.2234 0.0000  plane waves:    1724
 k-point  60 :   0.2340 0.2340 0.0000  plane waves:    1722
[...]
 k-point 155 :   0.0848 0.1697 0.0000  plane waves:    1713
 k-point 156 :   0.0788 0.1576 0.0000  plane waves:    1717
 k-point 157 :   0.0727 0.1455 0.0000  plane waves:    1721
 k-point 158 :   0.0667 0.1333 0.0000  plane waves:    1725
 k-point 159 :   0.0606 0.1212 0.0000  plane waves:    1727
 k-point 160 :   0.0545 0.1091 0.0000  plane waves:    1727
 k-point 161 :   0.0485 0.0970 0.0000  plane waves:    1729
 k-point 162 :   0.0424 0.0848 0.0000  plane waves:    1725
 k-point 163 :   0.0364 0.0727 0.0000  plane waves:    1713
 k-point 164 :   0.0303 0.0606 0.0000  plane waves:    1713
 k-point 165 :   0.0242 0.0485 0.0000  plane waves:    1713
 k-point 166 :   0.0182 0.0364 0.0000  plane waves:    1713
 k-point 167 :   0.0121 0.0242 0.0000  plane waves:    1713
 k-point 168 :   0.0061 0.0121 0.0000  plane waves:    1709
 k-point 169 :   0.0000 0.0000 0.0000  plane waves:    1707

 maximum and minimum number of plane-waves per node :       138       97

 maximum number of plane-waves:      1730
 maximum index in each direction:
   IXMAX=    5   IYMAX=    4   IZMAX=   22
   IXMIN=   -5   IYMIN=   -5   IZMIN=  -22

 parallel 3D FFT for wavefunctions:
    minimum data exchange during FFTs selected (reduces bandwidth)
 parallel 3D FFT for charge:
    minimum data exchange during FFTs selected (reduces bandwidth)

 FFT grid for exact exchange (Hartree Fock)
  NGX = 14; NGY = 14; NGZ = 70

 Radii for the augmentation spheres in the non-local exchange
 for species   1 augmentation radius   0.874 (default was   0.699)
       energy cutoff for augmentation   2080.0

 real space projection operators:
  max/ min on nodes  :          9.42          0.00

 Maximum index for augmentation-charges in exchange           79
  SETUP_FOCK is finished

 Broyden mixing: mesh for mixing (old mesh)
   NGX =  9   NGY =  9   NGZ = 45
  (NGX  = 36   NGY  = 36   NGZ  =180)
  gives a total of   3645 points

 initial charge density was supplied:
 number of electron       7.9999997 magnetization
 charge density for first step will be calculated from the start-wavefunctions

 Maximum index for augmentation-charges          588 (set IRDMAX)

 initial charge from wavefunction
 First call to EWALD:  gamma=   0.445
 Maximum number of real-space cells 5x 5x 1
 Maximum number of reciprocal cells 2x 2x 7

--------------------------------------- Iteration      1(   1)  ---------------------------------------

 eigenvalue-minimisations  :     0
 total energy-change (2. order) :-0.2117321E+02  (-0.1992146E-01)
 number of electron       7.9999997 magnetization
 augmentation part        0.1897786 magnetization

 Free energy of the ion-electron system (eV)
  alpha Z        PSCENC =         5.19040345
  Ewald energy   TEWEN  =       560.32934460
  -Hartree energ DENC   =      -817.36208126
  -exchange      EXHF   =        17.99987693
  -V(xc)+E(xc)   XCENC  =        21.16652793
  PAW double counting   =       842.94665884     -843.86323135
  entropy T*S    EENTRO =        -0.00034827
  eigenvalues    EBANDS =       -98.38417656
  atomic energy  EATOM  =       290.80381757
  free energy    TOTEN  =       -21.17320812 eV

  energy without entropy =      -21.17285985  energy(sigma->0) =      -21.17303399
  exchange ACFDT corr.  =        -0.00011520  see jH, gK, PRB 81, 115126

[...]

 eigenvalue-minimisations  :     0
 total energy-change (2. order) :-0.1104127E-04  (-0.2255404E-05)
 number of electron       7.9999997 magnetization
 augmentation part        0.1879963 magnetization

[...]

 eigenvalue-minimisations  :     0
 total energy-change (2. order) : 0.1419748E-05  (-0.1380525E-05)
 number of electron       7.9999997 magnetization
 augmentation part        0.1879963 magnetization

[...]

--------------------------------------- Iteration      1(  14)  ---------------------------------------

 eigenvalue-minimisations  :     0
 total energy-change (2. order) : 0.9867041E-06  (-0.8558770E-06)
 number of electron       7.9999997 magnetization
 augmentation part        0.1879960 magnetization

 Free energy of the ion-electron system (eV)
  alpha Z        PSCENC =         5.19040345
  Ewald energy   TEWEN  =       560.32934460
  -Hartree energ DENC   =      -816.37138707
  -exchange      EXHF   =        18.00815272
  -V(xc)+E(xc)   XCENC  =        21.14019876
  PAW double counting   =       910.29194468     -911.17973149
  entropy T*S    EENTRO =        -0.00034827
  eigenvalues    EBANDS =       -99.40954325
  atomic energy  EATOM  =       290.80381757
  free energy    TOTEN  =       -21.19719244 eV

  energy without entropy =      -21.19684417  energy(sigma->0) =      -21.19701831
  exchange ACFDT corr.  =        -0.00011400  see jH, gK, PRB 81, 115126

  average scaling for gradient   1.0783

 average (electrostatic) potential at core
  the test charge radii are     0.6991
  (the norm of the test charge is              1.0000)
       1 -53.5329       2 -53.5329

 E-fermi :  -1.8297     XC(G=0):  -2.9988     alpha+bet : -3.1663

 Fermi energy:        -1.8296800902

 k-point     1 :       0.0000    0.0000    0.0000
  band No.  band energies     occupation
      1     -23.8773      2.00000
      2     -10.6841      2.00000
      3      -5.8421      2.00000
      4      -5.8417      2.00000
      5       1.6403      0.00000
      6       2.7703      0.00000
      7       3.5781      0.00000
      8       7.4059      0.00000

[...]

 k-point   169 :       0.0000    0.0000    0.0000
  band No.  band energies     occupation
      1     -23.8767      2.00000
      2     -10.6841      2.00000
      3      -5.8419      2.00000
      4      -5.8419      2.00000
      5       1.6403      0.00000
      6       2.7703      0.00000
      7       3.5781      0.00000
      8       8.0124      0.00000

 soft charge-density along one line, spin component           1
         0         1         2         3         4         5         6         7         8         9
 total charge-density along one line

------------------------ aborting loop because EDIFF is reached ----------------------------------------

  FORCE on cell =-STRESS in cart. coord.  units (eV):
  Direction    XX          YY          ZZ          XY          YZ          ZX
  Alpha Z     5.19040     5.19040     5.19040
  Ewald     828.96970   828.96971 -1097.61002    -0.00001     0.00000    -0.00000
  Hartree   805.17914   805.17914  -793.98689    -0.00000    -0.00000    -0.00000
  E(xc)     -22.63318   -22.63318   -23.11864     0.00000    -0.00000    -0.00000
  Local   -1722.39927 -1722.39930  1786.62960     0.00002     0.00000     0.00000
  n-local    -6.25444    -5.52099    -5.54357    -0.06697     0.00000     0.00000
  augment    -0.74134    -0.74134    -0.72166    -0.00001    -0.00000    -0.00000
  Kinetic   123.06142   115.74547   136.14260     0.11320    -0.00000    -0.00000
  Fock            NaN         NaN         NaN         NaN         NaN         NaN
  Total           NaN         NaN         NaN         NaN         NaN         NaN
  in kB           NaN         NaN         NaN         NaN         NaN         NaN

 VOLUME and BASIS-vectors are now :
  energy-cutoff  :      520.00
  volume of cell :       63.31
      direct lattice vectors                 reciprocal lattice vectors
     2.468133242  0.000000000  0.000000000     0.405164512 -0.233921840  0.000000000
     1.234066621  2.137466087  0.000000000     0.000000000  0.467843680  0.000000000
     0.000000000  0.000000000 12.000000000     0.000000000  0.000000000  0.083333333

  length of vectors
     2.468133242  2.468133242 12.000000000     0.467843680  0.467843680  0.083333333

 FORCES acting on ions:
    Electron-Ion                     Ewald-Force                    Non-Local-Force
   -.120E-04 -.846E-05 0.177E-04   0.648E-05 0.385E-05 0.322E-19   -.222E-15 -.278E-16 0.000E+00
   -.575E-05 0.964E-05 0.640E-05   -.648E-05 -.385E-05 -.322E-19   0.208E-15 -.278E-16 0.000E+00
   -.178E-04 0.111E-05 0.240E-04   -.114E-13 0.255E-14 0.000E+00   -.139E-16 -.555E-16 0.000E+00

 POSITION                                       TOTAL-FORCE (eV/Angst)
      0.00000      0.00000      6.00000              NaN           NaN           NaN
      1.23407      0.71249      6.00000              NaN           NaN           NaN
    total drift:                                     NaN           NaN           NaN

  FREE ENERGIE OF THE ION-ELECTRON SYSTEM (eV)
  free  energy   TOTEN  =       -21.19719244 eV

  energy  without entropy=      -21.19684417  energy(sigma->0) =      -21.19701831